LAMMPS data file via MB ab initio 2012 timestep = 1

3240 atoms
2 atom types

-15.35 30.7 xlo xhi
-15.35 30.7 ylo yhi
-15.35 30.7 zlo zhi

Masses

1 72.63
2 78.971

Atoms # atomic

1 1 -11.305 -3.69 -12.902
2 1 -13.008 -7.889 -9.934
3 1 -14.8768 -13.406 -4.3
4 1 -14.6958 -10.437 -4.34
5 1 -11.885 -0.11 -2.68
6 1 -14.9791 -2.7 -2.68
7 1 -10.467 -5.582 -0.09
8 1 -11.17 -8.054 -4.23
9 1 -14.7499 -10.699 -9.862
10 1 -6.113 -5.72 -1.86
11 1 -5.0 -3.81 -13.957
12 1 -7.662 -13.426 -10.695
13 1 -2.73 -5.402 -12.927
14 1 -0.31 -0.02 -14.5895
15 1 -5.11 -12.785 -0.91
16 1 -2.3 -11.303 -8.944
17 1 -9.735 -1.4 -3.51
18 1 -1.17 -7.595 -11.207
19 1 -5.29 -11.725 -8.806
20 1 -5.02 -5.637 -5.823
21 1 -2.12 -5.942 -4.51
22 1 -7.086 -0.59 -6.09
23 1 -2.21 -8.64 -1.48
24 1 -0.64 -3.09 -8.404
25 1 -2.01 -14.019 -2.31
26 1 -15.2042 -5.06 -4.58
27 1 -11.733 -1.07 -11.208
28 1 -6.514 -4.36 -7.203
29 1 -0.04 -1.18 -11.178
30 1 -13.309 -9.569 -13.015
31 1 -11.739 -9.142 -0.83
32 1 -6.8 -1.42 -15.2015
33 1 -9.642 -2.43 -5.823
34 1 -7.644 -14.281 -2.9
35 1 -10.424 -11.407 -14.3831
36 1 -1.35 -12.536 -0.85
37 1 -5.05 -5.803 -9.528
38 1 -12.141 -5.576 -7.137
39 1 -4.8 -6.805 -13.009
40 1 -7.558 -12.055 -14.001
41 2 -13.85 -4.89 -2.72
42 2 -4.79 -8.945 -14.193
43 2 -4.64 -7.174 -7.692
44 2 -5.803 -6.797 -3.84
45 2 -2.95 -5.15 -10.292
46 2 -15.0132 -3.2 -10.63
47 2 -12.578 -11.816 -12.418
48 2 -1.66 -14.272 -4.64
49 2 -12.691 -14.206 -0.74
50 2 -11.556 -1.82 -2.05
51 2 -14.6775 -6.476 -10.241
52 2 -13.69 -14.9761 -11.318
53 2 -6.304 -10.884 -0.1
54 2 -8.869 -1.46 -7.407
55 2 -2.71 -3.6 -14.5441
56 2 -10.923 -6.89 -8.769
57 2 -5.26 -2.93 -0.84
58 2 -2.48 -7.873 -5.877
59 2 -1.54 -0.97 -13.342
60 2 -3.65 -12.17 -7.014
61 2 -12.867 -10.314 -9.343
62 2 -14.186 -5.749 -7.356
63 2 -8.397 -4.28 -5.835
64 2 -9.27 -13.665 -14.4563
65 2 -5.725 -1.89 -13.108
66 2 -6.773 -4.31 -9.472
67 2 -13.306 -0.49 -15.0969
68 2 -9.022 -8.767 -3.54
69 2 -9.367 -4.88 -12.984
70 2 -11.518 -3.3 -10.327
71 2 -4.17 -11.282 -10.54
72 2 -7.388 -1.0 -3.66
73 2 -6.3 -14.063 -4.99
74 2 -6.998 -10.854 -7.788
75 2 -9.9 -8.004 -15.2208
76 2 -14.3916 -11.82 -6.06
77 2 -14.5843 -11.958 -2.53
78 2 -9.517 -12.481 -9.854
79 2 -3.47 -12.693 -14.9448
80 2 -4.45 -8.205 -1.06
81 2 -0.63 -7.034 -1.18
82 2 -10.205 -14.9998 -3.73
83 2 -2.59 -5.27 -2.27
84 2 -5.23 -2.17 -6.8
85 2 -8.3 -0.33 -10.499
86 2 -8.52 -10.459 -9.818
87 2 -11.159 -1.45 -13.227
88 2 -8.188 -5.86 -2.74
89 2 -6.245 -14.7679 -0.6
90 2 -10.137 -4.31 -1.8
91 2 -9.0 -10.161 -13.372
92 2 -10.727 -11.294 -0.88
93 2 -12.738 -4.93 -14.4614
94 2 -5.588 -7.533 -11.029
95 2 -11.027 -5.868 -4.92
96 2 -14.014 -15.1191 -3.98
97 2 -0.76 -6.192 -12.847
98 2 -2.0 -1.17 -7.972
99 2 -10.065 -10.684 -6.42
100 2 -0.01 -12.735 -14.354
101 2 -11.438 -3.11 -6.87
102 2 -15.0333 -9.886 -12.097
103 2 -11.902 -9.374 -5.761
104 2 -12.023 -8.101 -11.565
105 2 -6.178 -5.358 -14.238
106 2 -1.92 -0.39 -10.141
107 2 -1.24 -9.309 -8.579
108 2 -1.72 -0.3 -1.43
109 2 -3.98 -12.57 -3.03
110 2 -13.18 -8.41 -14.6776
111 2 -5.954 -14.206 -8.912
112 2 -3.56 -4.24 -5.21
113 2 -1.45 -10.298 -0.09
114 2 -0.18 -2.76 -4.93
115 2 -12.576 -8.767 -2.73
116 2 -2.05 -9.553 -3.87
117 2 -10.592 -15.25145 -10.099
118 2 -9.14 -11.082 -4.38
119 2 -6.17 -13.13 -12.421
120 2 -0.38 -12.73 -9.541
121 1 -11.305 -3.69 2.448
122 1 -13.008 -7.889 5.416
123 1 -14.8768 -13.406 11.05
124 1 -14.6958 -10.437 11.01
125 1 -11.885 -0.11 12.67
126 1 -14.9791 -2.7 12.67
127 1 -10.467 -5.582 15.26
128 1 -11.17 -8.054 11.12
129 1 -14.7499 -10.699 5.488
130 1 -6.113 -5.72 13.49
131 1 -5.0 -3.81 1.393
132 1 -7.662 -13.426 4.655
133 1 -2.73 -5.402 2.423
134 1 -0.31 -0.02 0.7605
135 1 -5.11 -12.785 14.44
136 1 -2.3 -11.303 6.406
137 1 -9.735 -1.4 11.84
138 1 -1.17 -7.595 4.143
139 1 -5.29 -11.725 6.544
140 1 -5.02 -5.637 9.527
141 1 -2.12 -5.942 10.84
142 1 -7.086 -0.59 9.26
143 1 -2.21 -8.64 13.87
144 1 -0.64 -3.09 6.946
145 1 -2.01 -14.019 13.04
146 1 -15.2042 -5.06 10.77
147 1 -11.733 -1.07 4.142
148 1 -6.514 -4.36 8.147
149 1 -0.04 -1.18 4.172
150 1 -13.309 -9.569 2.335
151 1 -11.739 -9.142 14.52
152 1 -6.8 -1.42 0.1485
153 1 -9.642 -2.43 9.527
154 1 -7.644 -14.281 12.45
155 1 -10.424 -11.407 0.9669
156 1 -1.35 -12.536 14.5
157 1 -5.05 -5.803 5.822
158 1 -12.141 -5.576 8.213
159 1 -4.8 -6.805 2.341
160 1 -7.558 -12.055 1.349
161 2 -13.85 -4.89 12.63
162 2 -4.79 -8.945 1.157
163 2 -4.64 -7.174 7.658
164 2 -5.803 -6.797 11.51
165 2 -2.95 -5.15 5.058
166 2 -15.0132 -3.2 4.72
167 2 -12.578 -11.816 2.932
168 2 -1.66 -14.272 10.71
169 2 -12.691 -14.206 14.61
170 2 -11.556 -1.82 13.3
171 2 -14.6775 -6.476 5.109
172 2 -13.69 -14.9761 4.032
173 2 -6.304 -10.884 15.25
174 2 -8.869 -1.46 7.943
175 2 -2.71 -3.6 0.8059
176 2 -10.923 -6.89 6.581
177 2 -5.26 -2.93 14.51
178 2 -2.48 -7.873 9.473
179 2 -1.54 -0.97 2.008
180 2 -3.65 -12.17 8.336
181 2 -12.867 -10.314 6.007
182 2 -14.186 -5.749 7.994
183 2 -8.397 -4.28 9.515
184 2 -9.27 -13.665 0.8937
185 2 -5.725 -1.89 2.242
186 2 -6.773 -4.31 5.878
187 2 -13.306 -0.49 0.2531
188 2 -9.022 -8.767 11.81
189 2 -9.367 -4.88 2.366
190 2 -11.518 -3.3 5.023
191 2 -4.17 -11.282 4.81
192 2 -7.388 -1.0 11.69
193 2 -6.3 -14.063 10.36
194 2 -6.998 -10.854 7.562
195 2 -9.9 -8.004 0.1292
196 2 -14.3916 -11.82 9.29
197 2 -14.5843 -11.958 12.82
198 2 -9.517 -12.481 5.496
199 2 -3.47 -12.693 0.4052
200 2 -4.45 -8.205 14.29
201 2 -0.63 -7.034 14.17
202 2 -10.205 -14.9998 11.62
203 2 -2.59 -5.27 13.08
204 2 -5.23 -2.17 8.55
205 2 -8.3 -0.33 4.851
206 2 -8.52 -10.459 5.532
207 2 -11.159 -1.45 2.123
208 2 -8.188 -5.86 12.61
209 2 -6.245 -14.7679 14.75
210 2 -10.137 -4.31 13.55
211 2 -9.0 -10.161 1.978
212 2 -10.727 -11.294 14.47
213 2 -12.738 -4.93 0.8886
214 2 -5.588 -7.533 4.321
215 2 -11.027 -5.868 10.43
216 2 -14.014 -15.1191 11.37
217 2 -0.76 -6.192 2.503
218 2 -2.0 -1.17 7.378
219 2 -10.065 -10.684 8.93
220 2 -0.01 -12.735 0.996
221 2 -11.438 -3.11 8.48
222 2 -15.0333 -9.886 3.253
223 2 -11.902 -9.374 9.589
224 2 -12.023 -8.101 3.785
225 2 -6.178 -5.358 1.112
226 2 -1.92 -0.39 5.209
227 2 -1.24 -9.309 6.771
228 2 -1.72 -0.3 13.92
229 2 -3.98 -12.57 12.32
230 2 -13.18 -8.41 0.6724
231 2 -5.954 -14.206 6.438
232 2 -3.56 -4.24 10.14
233 2 -1.45 -10.298 15.26
234 2 -0.18 -2.76 10.42
235 2 -12.576 -8.767 12.62
236 2 -2.05 -9.553 11.48
237 2 -10.592 -15.25145 5.251
238 2 -9.14 -11.082 10.97
239 2 -6.17 -13.13 2.929
240 2 -0.38 -12.73 5.809
241 1 -11.305 -3.69 17.798
242 1 -13.008 -7.889 20.766
243 1 -14.8768 -13.406 26.4
244 1 -14.6958 -10.437 26.36
245 1 -11.885 -0.11 28.02
246 1 -14.9791 -2.7 28.02
247 1 -10.467 -5.582 30.61
248 1 -11.17 -8.054 26.47
249 1 -14.7499 -10.699 20.838
250 1 -6.113 -5.72 28.84
251 1 -5.0 -3.81 16.743
252 1 -7.662 -13.426 20.005
253 1 -2.73 -5.402 17.773
254 1 -0.31 -0.02 16.1105
255 1 -5.11 -12.785 29.79
256 1 -2.3 -11.303 21.756
257 1 -9.735 -1.4 27.19
258 1 -1.17 -7.595 19.493
259 1 -5.29 -11.725 21.894
260 1 -5.02 -5.637 24.877
261 1 -2.12 -5.942 26.19
262 1 -7.086 -0.59 24.61
263 1 -2.21 -8.64 29.22
264 1 -0.64 -3.09 22.296
265 1 -2.01 -14.019 28.39
266 1 -15.2042 -5.06 26.12
267 1 -11.733 -1.07 19.492
268 1 -6.514 -4.36 23.497
269 1 -0.04 -1.18 19.522
270 1 -13.309 -9.569 17.685
271 1 -11.739 -9.142 29.87
272 1 -6.8 -1.42 15.4985
273 1 -9.642 -2.43 24.877
274 1 -7.644 -14.281 27.8
275 1 -10.424 -11.407 16.3169
276 1 -1.35 -12.536 29.85
277 1 -5.05 -5.803 21.172
278 1 -12.141 -5.576 23.563
279 1 -4.8 -6.805 17.691
280 1 -7.558 -12.055 16.699
281 2 -13.85 -4.89 27.98
282 2 -4.79 -8.945 16.507
283 2 -4.64 -7.174 23.008
284 2 -5.803 -6.797 26.86
285 2 -2.95 -5.15 20.408
286 2 -15.0132 -3.2 20.07
287 2 -12.578 -11.816 18.282
288 2 -1.66 -14.272 26.06
289 2 -12.691 -14.206 29.96
290 2 -11.556 -1.82 28.65
291 2 -14.6775 -6.476 20.459
292 2 -13.69 -14.9761 19.382
293 2 -6.304 -10.884 30.6
294 2 -8.869 -1.46 23.293
295 2 -2.71 -3.6 16.1559
296 2 -10.923 -6.89 21.931
297 2 -5.26 -2.93 29.86
298 2 -2.48 -7.873 24.823
299 2 -1.54 -0.97 17.358
300 2 -3.65 -12.17 23.686
301 2 -12.867 -10.314 21.357
302 2 -14.186 -5.749 23.344
303 2 -8.397 -4.28 24.865
304 2 -9.27 -13.665 16.2437
305 2 -5.725 -1.89 17.592
306 2 -6.773 -4.31 21.228
307 2 -13.306 -0.49 15.6031
308 2 -9.022 -8.767 27.16
309 2 -9.367 -4.88 17.716
310 2 -11.518 -3.3 20.373
311 2 -4.17 -11.282 20.16
312 2 -7.388 -1.0 27.04
313 2 -6.3 -14.063 25.71
314 2 -6.998 -10.854 22.912
315 2 -9.9 -8.004 15.4792
316 2 -14.3916 -11.82 24.64
317 2 -14.5843 -11.958 28.17
318 2 -9.517 -12.481 20.846
319 2 -3.47 -12.693 15.7552
320 2 -4.45 -8.205 29.64
321 2 -0.63 -7.034 29.52
322 2 -10.205 -14.9998 26.97
323 2 -2.59 -5.27 28.43
324 2 -5.23 -2.17 23.9
325 2 -8.3 -0.33 20.201
326 2 -8.52 -10.459 20.882
327 2 -11.159 -1.45 17.473
328 2 -8.188 -5.86 27.96
329 2 -6.245 -14.7679 30.1
330 2 -10.137 -4.31 28.9
331 2 -9.0 -10.161 17.328
332 2 -10.727 -11.294 29.82
333 2 -12.738 -4.93 16.2386
334 2 -5.588 -7.533 19.671
335 2 -11.027 -5.868 25.78
336 2 -14.014 -15.1191 26.72
337 2 -0.76 -6.192 17.853
338 2 -2.0 -1.17 22.728
339 2 -10.065 -10.684 24.28
340 2 -0.01 -12.735 16.346
341 2 -11.438 -3.11 23.83
342 2 -15.0333 -9.886 18.603
343 2 -11.902 -9.374 24.939
344 2 -12.023 -8.101 19.135
345 2 -6.178 -5.358 16.462
346 2 -1.92 -0.39 20.559
347 2 -1.24 -9.309 22.121
348 2 -1.72 -0.3 29.27
349 2 -3.98 -12.57 27.67
350 2 -13.18 -8.41 16.0224
351 2 -5.954 -14.206 21.788
352 2 -3.56 -4.24 25.49
353 2 -1.45 -10.298 30.61
354 2 -0.18 -2.76 25.77
355 2 -12.576 -8.767 27.97
356 2 -2.05 -9.553 26.83
357 2 -10.592 -15.25145 20.601
358 2 -9.14 -11.082 26.32
359 2 -6.17 -13.13 18.279
360 2 -0.38 -12.73 21.159
361 1 -11.305 11.66 -12.902
362 1 -13.008 7.461 -9.934
363 1 -14.8768 1.944 -4.3
364 1 -14.6958 4.913 -4.34
365 1 -11.885 15.24 -2.68
366 1 -14.9791 12.65 -2.68
367 1 -10.467 9.768 -0.09
368 1 -11.17 7.296 -4.23
369 1 -14.7499 4.651 -9.862
370 1 -6.113 9.63 -1.86
371 1 -5.0 11.54 -13.957
372 1 -7.662 1.924 -10.695
373 1 -2.73 9.948 -12.927
374 1 -0.31 15.33 -14.5895
375 1 -5.11 2.565 -0.91
376 1 -2.3 4.047 -8.944
377 1 -9.735 13.95 -3.51
378 1 -1.17 7.755 -11.207
379 1 -5.29 3.625 -8.806
380 1 -5.02 9.713 -5.823
381 1 -2.12 9.408 -4.51
382 1 -7.086 14.76 -6.09
383 1 -2.21 6.71 -1.48
384 1 -0.64 12.26 -8.404
385 1 -2.01 1.331 -2.31
386 1 -15.2042 10.29 -4.58
387 1 -11.733 14.28 -11.208
388 1 -6.514 10.99 -7.203
389 1 -0.04 14.17 -11.178
390 1 -13.309 5.781 -13.015
391 1 -11.739 6.208 -0.83
392 1 -6.8 13.93 -15.2015
393 1 -9.642 12.92 -5.823
394 1 -7.644 1.069 -2.9
395 1 -10.424 3.943 -14.3831
396 1 -1.35 2.814 -0.85
397 1 -5.05 9.547 -9.528
398 1 -12.141 9.774 -7.137
399 1 -4.8 8.545 -13.009
400 1 -7.558 3.295 -14.001
401 2 -13.85 10.46 -2.72
402 2 -4.79 6.405 -14.193
403 2 -4.64 8.176 -7.692
404 2 -5.803 8.553 -3.84
405 2 -2.95 10.2 -10.292
406 2 -15.0132 12.15 -10.63
407 2 -12.578 3.534 -12.418
408 2 -1.66 1.078 -4.64
409 2 -12.691 1.144 -0.74
410 2 -11.556 13.53 -2.05
411 2 -14.6775 8.874 -10.241
412 2 -13.69 0.3739 -11.318
413 2 -6.304 4.466 -0.1
414 2 -8.869 13.89 -7.407
415 2 -2.71 11.75 -14.5441
416 2 -10.923 8.46 -8.769
417 2 -5.26 12.42 -0.84
418 2 -2.48 7.477 -5.877
419 2 -1.54 14.38 -13.342
420 2 -3.65 3.18 -7.014
421 2 -12.867 5.036 -9.343
422 2 -14.186 9.601 -7.356
423 2 -8.397 11.07 -5.835
424 2 -9.27 1.685 -14.4563
425 2 -5.725 13.46 -13.108
426 2 -6.773 11.04 -9.472
427 2 -13.306 14.86 -15.0969
428 2 -9.022 6.583 -3.54
429 2 -9.367 10.47 -12.984
430 2 -11.518 12.05 -10.327
431 2 -4.17 4.068 -10.54
432 2 -7.388 14.35 -3.66
433 2 -6.3 1.287 -4.99
434 2 -6.998 4.496 -7.788
435 2 -9.9 7.346 -15.2208
436 2 -14.3916 3.53 -6.06
437 2 -14.5843 3.392 -2.53
438 2 -9.517 2.869 -9.854
439 2 -3.47 2.657 -14.9448
440 2 -4.45 7.145 -1.06
441 2 -0.63 8.316 -1.18
442 2 -10.205 0.3502 -3.73
443 2 -2.59 10.08 -2.27
444 2 -5.23 13.18 -6.8
445 2 -8.3 15.02 -10.499
446 2 -8.52 4.891 -9.818
447 2 -11.159 13.9 -13.227
448 2 -8.188 9.49 -2.74
449 2 -6.245 0.5821 -0.6
450 2 -10.137 11.04 -1.8
451 2 -9.0 5.189 -13.372
452 2 -10.727 4.056 -0.88
453 2 -12.738 10.42 -14.4614
454 2 -5.588 7.817 -11.029
455 2 -11.027 9.482 -4.92
456 2 -14.014 0.2309 -3.98
457 2 -0.76 9.158 -12.847
458 2 -2.0 14.18 -7.972
459 2 -10.065 4.666 -6.42
460 2 -0.01 2.615 -14.354
461 2 -11.438 12.24 -6.87
462 2 -15.0333 5.464 -12.097
463 2 -11.902 5.976 -5.761
464 2 -12.023 7.249 -11.565
465 2 -6.178 9.992 -14.238
466 2 -1.92 14.96 -10.141
467 2 -1.24 6.041 -8.579
468 2 -1.72 15.05 -1.43
469 2 -3.98 2.78 -3.03
470 2 -13.18 6.94 -14.6776
471 2 -5.954 1.144 -8.912
472 2 -3.56 11.11 -5.21
473 2 -1.45 5.052 -0.09
474 2 -0.18 12.59 -4.93
475 2 -12.576 6.583 -2.73
476 2 -2.05 5.797 -3.87
477 2 -10.592 0.09855 -10.099
478 2 -9.14 4.268 -4.38
479 2 -6.17 2.22 -12.421
480 2 -0.38 2.62 -9.541
481 1 -11.305 11.66 2.448
482 1 -13.008 7.461 5.416
483 1 -14.8768 1.944 11.05
484 1 -14.6958 4.913 11.01
485 1 -11.885 15.24 12.67
486 1 -14.9791 12.65 12.67
487 1 -10.467 9.768 15.26
488 1 -11.17 7.296 11.12
489 1 -14.7499 4.651 5.488
490 1 -6.113 9.63 13.49
491 1 -5.0 11.54 1.393
492 1 -7.662 1.924 4.655
493 1 -2.73 9.948 2.423
494 1 -0.31 15.33 0.7605
495 1 -5.11 2.565 14.44
496 1 -2.3 4.047 6.406
497 1 -9.735 13.95 11.84
498 1 -1.17 7.755 4.143
499 1 -5.29 3.625 6.544
500 1 -5.02 9.713 9.527
501 1 -2.12 9.408 10.84
502 1 -7.086 14.76 9.26
503 1 -2.21 6.71 13.87
504 1 -0.64 12.26 6.946
505 1 -2.01 1.331 13.04
506 1 -15.2042 10.29 10.77
507 1 -11.733 14.28 4.142
508 1 -6.514 10.99 8.147
509 1 -0.04 14.17 4.172
510 1 -13.309 5.781 2.335
511 1 -11.739 6.208 14.52
512 1 -6.8 13.93 0.1485
513 1 -9.642 12.92 9.527
514 1 -7.644 1.069 12.45
515 1 -10.424 3.943 0.9669
516 1 -1.35 2.814 14.5
517 1 -5.05 9.547 5.822
518 1 -12.141 9.774 8.213
519 1 -4.8 8.545 2.341
520 1 -7.558 3.295 1.349
521 2 -13.85 10.46 12.63
522 2 -4.79 6.405 1.157
523 2 -4.64 8.176 7.658
524 2 -5.803 8.553 11.51
525 2 -2.95 10.2 5.058
526 2 -15.0132 12.15 4.72
527 2 -12.578 3.534 2.932
528 2 -1.66 1.078 10.71
529 2 -12.691 1.144 14.61
530 2 -11.556 13.53 13.3
531 2 -14.6775 8.874 5.109
532 2 -13.69 0.3739 4.032
533 2 -6.304 4.466 15.25
534 2 -8.869 13.89 7.943
535 2 -2.71 11.75 0.8059
536 2 -10.923 8.46 6.581
537 2 -5.26 12.42 14.51
538 2 -2.48 7.477 9.473
539 2 -1.54 14.38 2.008
540 2 -3.65 3.18 8.336
541 2 -12.867 5.036 6.007
542 2 -14.186 9.601 7.994
543 2 -8.397 11.07 9.515
544 2 -9.27 1.685 0.8937
545 2 -5.725 13.46 2.242
546 2 -6.773 11.04 5.878
547 2 -13.306 14.86 0.2531
548 2 -9.022 6.583 11.81
549 2 -9.367 10.47 2.366
550 2 -11.518 12.05 5.023
551 2 -4.17 4.068 4.81
552 2 -7.388 14.35 11.69
553 2 -6.3 1.287 10.36
554 2 -6.998 4.496 7.562
555 2 -9.9 7.346 0.1292
556 2 -14.3916 3.53 9.29
557 2 -14.5843 3.392 12.82
558 2 -9.517 2.869 5.496
559 2 -3.47 2.657 0.4052
560 2 -4.45 7.145 14.29
561 2 -0.63 8.316 14.17
562 2 -10.205 0.3502 11.62
563 2 -2.59 10.08 13.08
564 2 -5.23 13.18 8.55
565 2 -8.3 15.02 4.851
566 2 -8.52 4.891 5.532
567 2 -11.159 13.9 2.123
568 2 -8.188 9.49 12.61
569 2 -6.245 0.5821 14.75
570 2 -10.137 11.04 13.55
571 2 -9.0 5.189 1.978
572 2 -10.727 4.056 14.47
573 2 -12.738 10.42 0.8886
574 2 -5.588 7.817 4.321
575 2 -11.027 9.482 10.43
576 2 -14.014 0.2309 11.37
577 2 -0.76 9.158 2.503
578 2 -2.0 14.18 7.378
579 2 -10.065 4.666 8.93
580 2 -0.01 2.615 0.996
581 2 -11.438 12.24 8.48
582 2 -15.0333 5.464 3.253
583 2 -11.902 5.976 9.589
584 2 -12.023 7.249 3.785
585 2 -6.178 9.992 1.112
586 2 -1.92 14.96 5.209
587 2 -1.24 6.041 6.771
588 2 -1.72 15.05 13.92
589 2 -3.98 2.78 12.32
590 2 -13.18 6.94 0.6724
591 2 -5.954 1.144 6.438
592 2 -3.56 11.11 10.14
593 2 -1.45 5.052 15.26
594 2 -0.18 12.59 10.42
595 2 -12.576 6.583 12.62
596 2 -2.05 5.797 11.48
597 2 -10.592 0.09855 5.251
598 2 -9.14 4.268 10.97
599 2 -6.17 2.22 2.929
600 2 -0.38 2.62 5.809
601 1 -11.305 11.66 17.798
602 1 -13.008 7.461 20.766
603 1 -14.8768 1.944 26.4
604 1 -14.6958 4.913 26.36
605 1 -11.885 15.24 28.02
606 1 -14.9791 12.65 28.02
607 1 -10.467 9.768 30.61
608 1 -11.17 7.296 26.47
609 1 -14.7499 4.651 20.838
610 1 -6.113 9.63 28.84
611 1 -5.0 11.54 16.743
612 1 -7.662 1.924 20.005
613 1 -2.73 9.948 17.773
614 1 -0.31 15.33 16.1105
615 1 -5.11 2.565 29.79
616 1 -2.3 4.047 21.756
617 1 -9.735 13.95 27.19
618 1 -1.17 7.755 19.493
619 1 -5.29 3.625 21.894
620 1 -5.02 9.713 24.877
621 1 -2.12 9.408 26.19
622 1 -7.086 14.76 24.61
623 1 -2.21 6.71 29.22
624 1 -0.64 12.26 22.296
625 1 -2.01 1.331 28.39
626 1 -15.2042 10.29 26.12
627 1 -11.733 14.28 19.492
628 1 -6.514 10.99 23.497
629 1 -0.04 14.17 19.522
630 1 -13.309 5.781 17.685
631 1 -11.739 6.208 29.87
632 1 -6.8 13.93 15.4985
633 1 -9.642 12.92 24.877
634 1 -7.644 1.069 27.8
635 1 -10.424 3.943 16.3169
636 1 -1.35 2.814 29.85
637 1 -5.05 9.547 21.172
638 1 -12.141 9.774 23.563
639 1 -4.8 8.545 17.691
640 1 -7.558 3.295 16.699
641 2 -13.85 10.46 27.98
642 2 -4.79 6.405 16.507
643 2 -4.64 8.176 23.008
644 2 -5.803 8.553 26.86
645 2 -2.95 10.2 20.408
646 2 -15.0132 12.15 20.07
647 2 -12.578 3.534 18.282
648 2 -1.66 1.078 26.06
649 2 -12.691 1.144 29.96
650 2 -11.556 13.53 28.65
651 2 -14.6775 8.874 20.459
652 2 -13.69 0.3739 19.382
653 2 -6.304 4.466 30.6
654 2 -8.869 13.89 23.293
655 2 -2.71 11.75 16.1559
656 2 -10.923 8.46 21.931
657 2 -5.26 12.42 29.86
658 2 -2.48 7.477 24.823
659 2 -1.54 14.38 17.358
660 2 -3.65 3.18 23.686
661 2 -12.867 5.036 21.357
662 2 -14.186 9.601 23.344
663 2 -8.397 11.07 24.865
664 2 -9.27 1.685 16.2437
665 2 -5.725 13.46 17.592
666 2 -6.773 11.04 21.228
667 2 -13.306 14.86 15.6031
668 2 -9.022 6.583 27.16
669 2 -9.367 10.47 17.716
670 2 -11.518 12.05 20.373
671 2 -4.17 4.068 20.16
672 2 -7.388 14.35 27.04
673 2 -6.3 1.287 25.71
674 2 -6.998 4.496 22.912
675 2 -9.9 7.346 15.4792
676 2 -14.3916 3.53 24.64
677 2 -14.5843 3.392 28.17
678 2 -9.517 2.869 20.846
679 2 -3.47 2.657 15.7552
680 2 -4.45 7.145 29.64
681 2 -0.63 8.316 29.52
682 2 -10.205 0.3502 26.97
683 2 -2.59 10.08 28.43
684 2 -5.23 13.18 23.9
685 2 -8.3 15.02 20.201
686 2 -8.52 4.891 20.882
687 2 -11.159 13.9 17.473
688 2 -8.188 9.49 27.96
689 2 -6.245 0.5821 30.1
690 2 -10.137 11.04 28.9
691 2 -9.0 5.189 17.328
692 2 -10.727 4.056 29.82
693 2 -12.738 10.42 16.2386
694 2 -5.588 7.817 19.671
695 2 -11.027 9.482 25.78
696 2 -14.014 0.2309 26.72
697 2 -0.76 9.158 17.853
698 2 -2.0 14.18 22.728
699 2 -10.065 4.666 24.28
700 2 -0.01 2.615 16.346
701 2 -11.438 12.24 23.83
702 2 -15.0333 5.464 18.603
703 2 -11.902 5.976 24.939
704 2 -12.023 7.249 19.135
705 2 -6.178 9.992 16.462
706 2 -1.92 14.96 20.559
707 2 -1.24 6.041 22.121
708 2 -1.72 15.05 29.27
709 2 -3.98 2.78 27.67
710 2 -13.18 6.94 16.0224
711 2 -5.954 1.144 21.788
712 2 -3.56 11.11 25.49
713 2 -1.45 5.052 30.61
714 2 -0.18 12.59 25.77
715 2 -12.576 6.583 27.97
716 2 -2.05 5.797 26.83
717 2 -10.592 0.09855 20.601
718 2 -9.14 4.268 26.32
719 2 -6.17 2.22 18.279
720 2 -0.38 2.62 21.159
721 1 -11.305 27.01 -12.902
722 1 -13.008 22.811 -9.934
723 1 -14.8768 17.294 -4.3
724 1 -14.6958 20.263 -4.34
725 1 -11.885 30.59 -2.68
726 1 -14.9791 28.0 -2.68
727 1 -10.467 25.118 -0.09
728 1 -11.17 22.646 -4.23
729 1 -14.7499 20.001 -9.862
730 1 -6.113 24.98 -1.86
731 1 -5.0 26.89 -13.957
732 1 -7.662 17.274 -10.695
733 1 -2.73 25.298 -12.927
734 1 -0.31 30.68 -14.5895
735 1 -5.11 17.915 -0.91
736 1 -2.3 19.397 -8.944
737 1 -9.735 29.3 -3.51
738 1 -1.17 23.105 -11.207
739 1 -5.29 18.975 -8.806
740 1 -5.02 25.063 -5.823
741 1 -2.12 24.758 -4.51
742 1 -7.086 30.11 -6.09
743 1 -2.21 22.06 -1.48
744 1 -0.64 27.61 -8.404
745 1 -2.01 16.681 -2.31
746 1 -15.2042 25.64 -4.58
747 1 -11.733 29.63 -11.208
748 1 -6.514 26.34 -7.203
749 1 -0.04 29.52 -11.178
750 1 -13.309 21.131 -13.015
751 1 -11.739 21.558 -0.83
752 1 -6.8 29.28 -15.2015
753 1 -9.642 28.27 -5.823
754 1 -7.644 16.419 -2.9
755 1 -10.424 19.293 -14.3831
756 1 -1.35 18.164 -0.85
757 1 -5.05 24.897 -9.528
758 1 -12.141 25.124 -7.137
759 1 -4.8 23.895 -13.009
760 1 -7.558 18.645 -14.001
761 2 -13.85 25.81 -2.72
762 2 -4.79 21.755 -14.193
763 2 -4.64 23.526 -7.692
764 2 -5.803 23.903 -3.84
765 2 -2.95 25.55 -10.292
766 2 -15.0132 27.5 -10.63
767 2 -12.578 18.884 -12.418
768 2 -1.66 16.428 -4.64
769 2 -12.691 16.494 -0.74
770 2 -11.556 28.88 -2.05
771 2 -14.6775 24.224 -10.241
772 2 -13.69 15.7239 -11.318
773 2 -6.304 19.816 -0.1
774 2 -8.869 29.24 -7.407
775 2 -2.71 27.1 -14.5441
776 2 -10.923 23.81 -8.769
777 2 -5.26 27.77 -0.84
778 2 -2.48 22.827 -5.877
779 2 -1.54 29.73 -13.342
780 2 -3.65 18.53 -7.014
781 2 -12.867 20.386 -9.343
782 2 -14.186 24.951 -7.356
783 2 -8.397 26.42 -5.835
784 2 -9.27 17.035 -14.4563
785 2 -5.725 28.81 -13.108
786 2 -6.773 26.39 -9.472
787 2 -13.306 30.21 -15.0969
788 2 -9.022 21.933 -3.54
789 2 -9.367 25.82 -12.984
790 2 -11.518 27.4 -10.327
791 2 -4.17 19.418 -10.54
792 2 -7.388 29.7 -3.66
793 2 -6.3 16.637 -4.99
794 2 -6.998 19.846 -7.788
795 2 -9.9 22.696 -15.2208
796 2 -14.3916 18.88 -6.06
797 2 -14.5843 18.742 -2.53
798 2 -9.517 18.219 -9.854
799 2 -3.47 18.007 -14.9448
800 2 -4.45 22.495 -1.06
801 2 -0.63 23.666 -1.18
802 2 -10.205 15.7002 -3.73
803 2 -2.59 25.43 -2.27
804 2 -5.23 28.53 -6.8
805 2 -8.3 30.37 -10.499
806 2 -8.52 20.241 -9.818
807 2 -11.159 29.25 -13.227
808 2 -8.188 24.84 -2.74
809 2 -6.245 15.9321 -0.6
810 2 -10.137 26.39 -1.8
811 2 -9.0 20.539 -13.372
812 2 -10.727 19.406 -0.88
813 2 -12.738 25.77 -14.4614
814 2 -5.588 23.167 -11.029
815 2 -11.027 24.832 -4.92
816 2 -14.014 15.5809 -3.98
817 2 -0.76 24.508 -12.847
818 2 -2.0 29.53 -7.972
819 2 -10.065 20.016 -6.42
820 2 -0.01 17.965 -14.354
821 2 -11.438 27.59 -6.87
822 2 -15.0333 20.814 -12.097
823 2 -11.902 21.326 -5.761
824 2 -12.023 22.599 -11.565
825 2 -6.178 25.342 -14.238
826 2 -1.92 30.31 -10.141
827 2 -1.24 21.391 -8.579
828 2 -1.72 30.4 -1.43
829 2 -3.98 18.13 -3.03
830 2 -13.18 22.29 -14.6776
831 2 -5.954 16.494 -8.912
832 2 -3.56 26.46 -5.21
833 2 -1.45 20.402 -0.09
834 2 -0.18 27.94 -4.93
835 2 -12.576 21.933 -2.73
836 2 -2.05 21.147 -3.87
837 2 -10.592 15.44855 -10.099
838 2 -9.14 19.618 -4.38
839 2 -6.17 17.57 -12.421
840 2 -0.38 17.97 -9.541
841 1 -11.305 27.01 2.448
842 1 -13.008 22.811 5.416
843 1 -14.8768 17.294 11.05
844 1 -14.6958 20.263 11.01
845 1 -11.885 30.59 12.67
846 1 -14.9791 28.0 12.67
847 1 -10.467 25.118 15.26
848 1 -11.17 22.646 11.12
849 1 -14.7499 20.001 5.488
850 1 -6.113 24.98 13.49
851 1 -5.0 26.89 1.393
852 1 -7.662 17.274 4.655
853 1 -2.73 25.298 2.423
854 1 -0.31 30.68 0.7605
855 1 -5.11 17.915 14.44
856 1 -2.3 19.397 6.406
857 1 -9.735 29.3 11.84
858 1 -1.17 23.105 4.143
859 1 -5.29 18.975 6.544
860 1 -5.02 25.063 9.527
861 1 -2.12 24.758 10.84
862 1 -7.086 30.11 9.26
863 1 -2.21 22.06 13.87
864 1 -0.64 27.61 6.946
865 1 -2.01 16.681 13.04
866 1 -15.2042 25.64 10.77
867 1 -11.733 29.63 4.142
868 1 -6.514 26.34 8.147
869 1 -0.04 29.52 4.172
870 1 -13.309 21.131 2.335
871 1 -11.739 21.558 14.52
872 1 -6.8 29.28 0.1485
873 1 -9.642 28.27 9.527
874 1 -7.644 16.419 12.45
875 1 -10.424 19.293 0.9669
876 1 -1.35 18.164 14.5
877 1 -5.05 24.897 5.822
878 1 -12.141 25.124 8.213
879 1 -4.8 23.895 2.341
880 1 -7.558 18.645 1.349
881 2 -13.85 25.81 12.63
882 2 -4.79 21.755 1.157
883 2 -4.64 23.526 7.658
884 2 -5.803 23.903 11.51
885 2 -2.95 25.55 5.058
886 2 -15.0132 27.5 4.72
887 2 -12.578 18.884 2.932
888 2 -1.66 16.428 10.71
889 2 -12.691 16.494 14.61
890 2 -11.556 28.88 13.3
891 2 -14.6775 24.224 5.109
892 2 -13.69 15.7239 4.032
893 2 -6.304 19.816 15.25
894 2 -8.869 29.24 7.943
895 2 -2.71 27.1 0.8059
896 2 -10.923 23.81 6.581
897 2 -5.26 27.77 14.51
898 2 -2.48 22.827 9.473
899 2 -1.54 29.73 2.008
900 2 -3.65 18.53 8.336
901 2 -12.867 20.386 6.007
902 2 -14.186 24.951 7.994
903 2 -8.397 26.42 9.515
904 2 -9.27 17.035 0.8937
905 2 -5.725 28.81 2.242
906 2 -6.773 26.39 5.878
907 2 -13.306 30.21 0.2531
908 2 -9.022 21.933 11.81
909 2 -9.367 25.82 2.366
910 2 -11.518 27.4 5.023
911 2 -4.17 19.418 4.81
912 2 -7.388 29.7 11.69
913 2 -6.3 16.637 10.36
914 2 -6.998 19.846 7.562
915 2 -9.9 22.696 0.1292
916 2 -14.3916 18.88 9.29
917 2 -14.5843 18.742 12.82
918 2 -9.517 18.219 5.496
919 2 -3.47 18.007 0.4052
920 2 -4.45 22.495 14.29
921 2 -0.63 23.666 14.17
922 2 -10.205 15.7002 11.62
923 2 -2.59 25.43 13.08
924 2 -5.23 28.53 8.55
925 2 -8.3 30.37 4.851
926 2 -8.52 20.241 5.532
927 2 -11.159 29.25 2.123
928 2 -8.188 24.84 12.61
929 2 -6.245 15.9321 14.75
930 2 -10.137 26.39 13.55
931 2 -9.0 20.539 1.978
932 2 -10.727 19.406 14.47
933 2 -12.738 25.77 0.8886
934 2 -5.588 23.167 4.321
935 2 -11.027 24.832 10.43
936 2 -14.014 15.5809 11.37
937 2 -0.76 24.508 2.503
938 2 -2.0 29.53 7.378
939 2 -10.065 20.016 8.93
940 2 -0.01 17.965 0.996
941 2 -11.438 27.59 8.48
942 2 -15.0333 20.814 3.253
943 2 -11.902 21.326 9.589
944 2 -12.023 22.599 3.785
945 2 -6.178 25.342 1.112
946 2 -1.92 30.31 5.209
947 2 -1.24 21.391 6.771
948 2 -1.72 30.4 13.92
949 2 -3.98 18.13 12.32
950 2 -13.18 22.29 0.6724
951 2 -5.954 16.494 6.438
952 2 -3.56 26.46 10.14
953 2 -1.45 20.402 15.26
954 2 -0.18 27.94 10.42
955 2 -12.576 21.933 12.62
956 2 -2.05 21.147 11.48
957 2 -10.592 15.44855 5.251
958 2 -9.14 19.618 10.97
959 2 -6.17 17.57 2.929
960 2 -0.38 17.97 5.809
961 1 -11.305 27.01 17.798
962 1 -13.008 22.811 20.766
963 1 -14.8768 17.294 26.4
964 1 -14.6958 20.263 26.36
965 1 -11.885 30.59 28.02
966 1 -14.9791 28.0 28.02
967 1 -10.467 25.118 30.61
968 1 -11.17 22.646 26.47
969 1 -14.7499 20.001 20.838
970 1 -6.113 24.98 28.84
971 1 -5.0 26.89 16.743
972 1 -7.662 17.274 20.005
973 1 -2.73 25.298 17.773
974 1 -0.31 30.68 16.1105
975 1 -5.11 17.915 29.79
976 1 -2.3 19.397 21.756
977 1 -9.735 29.3 27.19
978 1 -1.17 23.105 19.493
979 1 -5.29 18.975 21.894
980 1 -5.02 25.063 24.877
981 1 -2.12 24.758 26.19
982 1 -7.086 30.11 24.61
983 1 -2.21 22.06 29.22
984 1 -0.64 27.61 22.296
985 1 -2.01 16.681 28.39
986 1 -15.2042 25.64 26.12
987 1 -11.733 29.63 19.492
988 1 -6.514 26.34 23.497
989 1 -0.04 29.52 19.522
990 1 -13.309 21.131 17.685
991 1 -11.739 21.558 29.87
992 1 -6.8 29.28 15.4985
993 1 -9.642 28.27 24.877
994 1 -7.644 16.419 27.8
995 1 -10.424 19.293 16.3169
996 1 -1.35 18.164 29.85
997 1 -5.05 24.897 21.172
998 1 -12.141 25.124 23.563
999 1 -4.8 23.895 17.691
1000 1 -7.558 18.645 16.699
1001 2 -13.85 25.81 27.98
1002 2 -4.79 21.755 16.507
1003 2 -4.64 23.526 23.008
1004 2 -5.803 23.903 26.86
1005 2 -2.95 25.55 20.408
1006 2 -15.0132 27.5 20.07
1007 2 -12.578 18.884 18.282
1008 2 -1.66 16.428 26.06
1009 2 -12.691 16.494 29.96
1010 2 -11.556 28.88 28.65
1011 2 -14.6775 24.224 20.459
1012 2 -13.69 15.7239 19.382
1013 2 -6.304 19.816 30.6
1014 2 -8.869 29.24 23.293
1015 2 -2.71 27.1 16.1559
1016 2 -10.923 23.81 21.931
1017 2 -5.26 27.77 29.86
1018 2 -2.48 22.827 24.823
1019 2 -1.54 29.73 17.358
1020 2 -3.65 18.53 23.686
1021 2 -12.867 20.386 21.357
1022 2 -14.186 24.951 23.344
1023 2 -8.397 26.42 24.865
1024 2 -9.27 17.035 16.2437
1025 2 -5.725 28.81 17.592
1026 2 -6.773 26.39 21.228
1027 2 -13.306 30.21 15.6031
1028 2 -9.022 21.933 27.16
1029 2 -9.367 25.82 17.716
1030 2 -11.518 27.4 20.373
1031 2 -4.17 19.418 20.16
1032 2 -7.388 29.7 27.04
1033 2 -6.3 16.637 25.71
1034 2 -6.998 19.846 22.912
1035 2 -9.9 22.696 15.4792
1036 2 -14.3916 18.88 24.64
1037 2 -14.5843 18.742 28.17
1038 2 -9.517 18.219 20.846
1039 2 -3.47 18.007 15.7552
1040 2 -4.45 22.495 29.64
1041 2 -0.63 23.666 29.52
1042 2 -10.205 15.7002 26.97
1043 2 -2.59 25.43 28.43
1044 2 -5.23 28.53 23.9
1045 2 -8.3 30.37 20.201
1046 2 -8.52 20.241 20.882
1047 2 -11.159 29.25 17.473
1048 2 -8.188 24.84 27.96
1049 2 -6.245 15.9321 30.1
1050 2 -10.137 26.39 28.9
1051 2 -9.0 20.539 17.328
1052 2 -10.727 19.406 29.82
1053 2 -12.738 25.77 16.2386
1054 2 -5.588 23.167 19.671
1055 2 -11.027 24.832 25.78
1056 2 -14.014 15.5809 26.72
1057 2 -0.76 24.508 17.853
1058 2 -2.0 29.53 22.728
1059 2 -10.065 20.016 24.28
1060 2 -0.01 17.965 16.346
1061 2 -11.438 27.59 23.83
1062 2 -15.0333 20.814 18.603
1063 2 -11.902 21.326 24.939
1064 2 -12.023 22.599 19.135
1065 2 -6.178 25.342 16.462
1066 2 -1.92 30.31 20.559
1067 2 -1.24 21.391 22.121
1068 2 -1.72 30.4 29.27
1069 2 -3.98 18.13 27.67
1070 2 -13.18 22.29 16.0224
1071 2 -5.954 16.494 21.788
1072 2 -3.56 26.46 25.49
1073 2 -1.45 20.402 30.61
1074 2 -0.18 27.94 25.77
1075 2 -12.576 21.933 27.97
1076 2 -2.05 21.147 26.83
1077 2 -10.592 15.44855 20.601
1078 2 -9.14 19.618 26.32
1079 2 -6.17 17.57 18.279
1080 2 -0.38 17.97 21.159
1081 1 4.045 -3.69 -12.902
1082 1 2.342 -7.889 -9.934
1083 1 0.4732 -13.406 -4.3
1084 1 0.6542 -10.437 -4.34
1085 1 3.465 -0.11 -2.68
1086 1 0.3709 -2.7 -2.68
1087 1 4.883 -5.582 -0.09
1088 1 4.18 -8.054 -4.23
1089 1 0.6001 -10.699 -9.862
1090 1 9.237 -5.72 -1.86
1091 1 10.35 -3.81 -13.957
1092 1 7.688 -13.426 -10.695
1093 1 12.62 -5.402 -12.927
1094 1 15.04 -0.02 -14.5895
1095 1 10.24 -12.785 -0.91
1096 1 13.05 -11.303 -8.944
1097 1 5.615 -1.4 -3.51
1098 1 14.18 -7.595 -11.207
1099 1 10.06 -11.725 -8.806
1100 1 10.33 -5.637 -5.823
1101 1 13.23 -5.942 -4.51
1102 1 8.264 -0.59 -6.09
1103 1 13.14 -8.64 -1.48
1104 1 14.71 -3.09 -8.404
1105 1 13.34 -14.019 -2.31
1106 1 0.1458 -5.06 -4.58
1107 1 3.617 -1.07 -11.208
1108 1 8.836 -4.36 -7.203
1109 1 15.31 -1.18 -11.178
1110 1 2.041 -9.569 -13.015
1111 1 3.611 -9.142 -0.83
1112 1 8.55 -1.42 -15.2015
1113 1 5.708 -2.43 -5.823
1114 1 7.706 -14.281 -2.9
1115 1 4.926 -11.407 -14.3831
1116 1 14.0 -12.536 -0.85
1117 1 10.3 -5.803 -9.528
1118 1 3.209 -5.576 -7.137
1119 1 10.55 -6.805 -13.009
1120 1 7.792 -12.055 -14.001
1121 2 1.5 -4.89 -2.72
1122 2 10.56 -8.945 -14.193
1123 2 10.71 -7.174 -7.692
1124 2 9.547 -6.797 -3.84
1125 2 12.4 -5.15 -10.292
1126 2 0.3368 -3.2 -10.63
1127 2 2.772 -11.816 -12.418
1128 2 13.69 -14.272 -4.64
1129 2 2.659 -14.206 -0.74
1130 2 3.794 -1.82 -2.05
1131 2 0.6725 -6.476 -10.241
1132 2 1.66 -14.9761 -11.318
1133 2 9.046 -10.884 -0.1
1134 2 6.481 -1.46 -7.407
1135 2 12.64 -3.6 -14.5441
1136 2 4.427 -6.89 -8.769
1137 2 10.09 -2.93 -0.84
1138 2 12.87 -7.873 -5.877
1139 2 13.81 -0.97 -13.342
1140 2 11.7 -12.17 -7.014
1141 2 2.483 -10.314 -9.343
1142 2 1.164 -5.749 -7.356
1143 2 6.953 -4.28 -5.835
1144 2 6.08 -13.665 -14.4563
1145 2 9.625 -1.89 -13.108
1146 2 8.577 -4.31 -9.472
1147 2 2.044 -0.49 -15.0969
1148 2 6.328 -8.767 -3.54
1149 2 5.983 -4.88 -12.984
1150 2 3.832 -3.3 -10.327
1151 2 11.18 -11.282 -10.54
1152 2 7.962 -1.0 -3.66
1153 2 9.05 -14.063 -4.99
1154 2 8.352 -10.854 -7.788
1155 2 5.45 -8.004 -15.2208
1156 2 0.9584 -11.82 -6.06
1157 2 0.7657 -11.958 -2.53
1158 2 5.833 -12.481 -9.854
1159 2 11.88 -12.693 -14.9448
1160 2 10.9 -8.205 -1.06
1161 2 14.72 -7.034 -1.18
1162 2 5.145 -14.9998 -3.73
1163 2 12.76 -5.27 -2.27
1164 2 10.12 -2.17 -6.8
1165 2 7.05 -0.33 -10.499
1166 2 6.83 -10.459 -9.818
1167 2 4.191 -1.45 -13.227
1168 2 7.162 -5.86 -2.74
1169 2 9.105 -14.7679 -0.6
1170 2 5.213 -4.31 -1.8
1171 2 6.35 -10.161 -13.372
1172 2 4.623 -11.294 -0.88
1173 2 2.612 -4.93 -14.4614
1174 2 9.762 -7.533 -11.029
1175 2 4.323 -5.868 -4.92
1176 2 1.336 -15.1191 -3.98
1177 2 14.59 -6.192 -12.847
1178 2 13.35 -1.17 -7.972
1179 2 5.285 -10.684 -6.42
1180 2 15.34 -12.735 -14.354
1181 2 3.912 -3.11 -6.87
1182 2 0.3167 -9.886 -12.097
1183 2 3.448 -9.374 -5.761
1184 2 3.327 -8.101 -11.565
1185 2 9.172 -5.358 -14.238
1186 2 13.43 -0.39 -10.141
1187 2 14.11 -9.309 -8.579
1188 2 13.63 -0.3 -1.43
1189 2 11.37 -12.57 -3.03
1190 2 2.17 -8.41 -14.6776
1191 2 9.396 -14.206 -8.912
1192 2 11.79 -4.24 -5.21
1193 2 13.9 -10.298 -0.09
1194 2 15.17 -2.76 -4.93
1195 2 2.774 -8.767 -2.73
1196 2 13.3 -9.553 -3.87
1197 2 4.758 -15.25145 -10.099
1198 2 6.21 -11.082 -4.38
1199 2 9.18 -13.13 -12.421
1200 2 14.97 -12.73 -9.541
1201 1 4.045 -3.69 2.448
1202 1 2.342 -7.889 5.416
1203 1 0.4732 -13.406 11.05
1204 1 0.6542 -10.437 11.01
1205 1 3.465 -0.11 12.67
1206 1 0.3709 -2.7 12.67
1207 1 4.883 -5.582 15.26
1208 1 4.18 -8.054 11.12
1209 1 0.6001 -10.699 5.488
1210 1 9.237 -5.72 13.49
1211 1 10.35 -3.81 1.393
1212 1 7.688 -13.426 4.655
1213 1 12.62 -5.402 2.423
1214 1 15.04 -0.02 0.7605
1215 1 10.24 -12.785 14.44
1216 1 13.05 -11.303 6.406
1217 1 5.615 -1.4 11.84
1218 1 14.18 -7.595 4.143
1219 1 10.06 -11.725 6.544
1220 1 10.33 -5.637 9.527
1221 1 13.23 -5.942 10.84
1222 1 8.264 -0.59 9.26
1223 1 13.14 -8.64 13.87
1224 1 14.71 -3.09 6.946
1225 1 13.34 -14.019 13.04
1226 1 0.1458 -5.06 10.77
1227 1 3.617 -1.07 4.142
1228 1 8.836 -4.36 8.147
1229 1 15.31 -1.18 4.172
1230 1 2.041 -9.569 2.335
1231 1 3.611 -9.142 14.52
1232 1 8.55 -1.42 0.1485
1233 1 5.708 -2.43 9.527
1234 1 7.706 -14.281 12.45
1235 1 4.926 -11.407 0.9669
1236 1 14.0 -12.536 14.5
1237 1 10.3 -5.803 5.822
1238 1 3.209 -5.576 8.213
1239 1 10.55 -6.805 2.341
1240 1 7.792 -12.055 1.349
1241 2 1.5 -4.89 12.63
1242 2 10.56 -8.945 1.157
1243 2 10.71 -7.174 7.658
1244 2 9.547 -6.797 11.51
1245 2 12.4 -5.15 5.058
1246 2 0.3368 -3.2 4.72
1247 2 2.772 -11.816 2.932
1248 2 13.69 -14.272 10.71
1249 2 2.659 -14.206 14.61
1250 2 3.794 -1.82 13.3
1251 2 0.6725 -6.476 5.109
1252 2 1.66 -14.9761 4.032
1253 2 9.046 -10.884 15.25
1254 2 6.481 -1.46 7.943
1255 2 12.64 -3.6 0.8059
1256 2 4.427 -6.89 6.581
1257 2 10.09 -2.93 14.51
1258 2 12.87 -7.873 9.473
1259 2 13.81 -0.97 2.008
1260 2 11.7 -12.17 8.336
1261 2 2.483 -10.314 6.007
1262 2 1.164 -5.749 7.994
1263 2 6.953 -4.28 9.515
1264 2 6.08 -13.665 0.8937
1265 2 9.625 -1.89 2.242
1266 2 8.577 -4.31 5.878
1267 2 2.044 -0.49 0.2531
1268 2 6.328 -8.767 11.81
1269 2 5.983 -4.88 2.366
1270 2 3.832 -3.3 5.023
1271 2 11.18 -11.282 4.81
1272 2 7.962 -1.0 11.69
1273 2 9.05 -14.063 10.36
1274 2 8.352 -10.854 7.562
1275 2 5.45 -8.004 0.1292
1276 2 0.9584 -11.82 9.29
1277 2 0.7657 -11.958 12.82
1278 2 5.833 -12.481 5.496
1279 2 11.88 -12.693 0.4052
1280 2 10.9 -8.205 14.29
1281 2 14.72 -7.034 14.17
1282 2 5.145 -14.9998 11.62
1283 2 12.76 -5.27 13.08
1284 2 10.12 -2.17 8.55
1285 2 7.05 -0.33 4.851
1286 2 6.83 -10.459 5.532
1287 2 4.191 -1.45 2.123
1288 2 7.162 -5.86 12.61
1289 2 9.105 -14.7679 14.75
1290 2 5.213 -4.31 13.55
1291 2 6.35 -10.161 1.978
1292 2 4.623 -11.294 14.47
1293 2 2.612 -4.93 0.8886
1294 2 9.762 -7.533 4.321
1295 2 4.323 -5.868 10.43
1296 2 1.336 -15.1191 11.37
1297 2 14.59 -6.192 2.503
1298 2 13.35 -1.17 7.378
1299 2 5.285 -10.684 8.93
1300 2 15.34 -12.735 0.996
1301 2 3.912 -3.11 8.48
1302 2 0.3167 -9.886 3.253
1303 2 3.448 -9.374 9.589
1304 2 3.327 -8.101 3.785
1305 2 9.172 -5.358 1.112
1306 2 13.43 -0.39 5.209
1307 2 14.11 -9.309 6.771
1308 2 13.63 -0.3 13.92
1309 2 11.37 -12.57 12.32
1310 2 2.17 -8.41 0.6724
1311 2 9.396 -14.206 6.438
1312 2 11.79 -4.24 10.14
1313 2 13.9 -10.298 15.26
1314 2 15.17 -2.76 10.42
1315 2 2.774 -8.767 12.62
1316 2 13.3 -9.553 11.48
1317 2 4.758 -15.25145 5.251
1318 2 6.21 -11.082 10.97
1319 2 9.18 -13.13 2.929
1320 2 14.97 -12.73 5.809
1321 1 4.045 -3.69 17.798
1322 1 2.342 -7.889 20.766
1323 1 0.4732 -13.406 26.4
1324 1 0.6542 -10.437 26.36
1325 1 3.465 -0.11 28.02
1326 1 0.3709 -2.7 28.02
1327 1 4.883 -5.582 30.61
1328 1 4.18 -8.054 26.47
1329 1 0.6001 -10.699 20.838
1330 1 9.237 -5.72 28.84
1331 1 10.35 -3.81 16.743
1332 1 7.688 -13.426 20.005
1333 1 12.62 -5.402 17.773
1334 1 15.04 -0.02 16.1105
1335 1 10.24 -12.785 29.79
1336 1 13.05 -11.303 21.756
1337 1 5.615 -1.4 27.19
1338 1 14.18 -7.595 19.493
1339 1 10.06 -11.725 21.894
1340 1 10.33 -5.637 24.877
1341 1 13.23 -5.942 26.19
1342 1 8.264 -0.59 24.61
1343 1 13.14 -8.64 29.22
1344 1 14.71 -3.09 22.296
1345 1 13.34 -14.019 28.39
1346 1 0.1458 -5.06 26.12
1347 1 3.617 -1.07 19.492
1348 1 8.836 -4.36 23.497
1349 1 15.31 -1.18 19.522
1350 1 2.041 -9.569 17.685
1351 1 3.611 -9.142 29.87
1352 1 8.55 -1.42 15.4985
1353 1 5.708 -2.43 24.877
1354 1 7.706 -14.281 27.8
1355 1 4.926 -11.407 16.3169
1356 1 14.0 -12.536 29.85
1357 1 10.3 -5.803 21.172
1358 1 3.209 -5.576 23.563
1359 1 10.55 -6.805 17.691
1360 1 7.792 -12.055 16.699
1361 2 1.5 -4.89 27.98
1362 2 10.56 -8.945 16.507
1363 2 10.71 -7.174 23.008
1364 2 9.547 -6.797 26.86
1365 2 12.4 -5.15 20.408
1366 2 0.3368 -3.2 20.07
1367 2 2.772 -11.816 18.282
1368 2 13.69 -14.272 26.06
1369 2 2.659 -14.206 29.96
1370 2 3.794 -1.82 28.65
1371 2 0.6725 -6.476 20.459
1372 2 1.66 -14.9761 19.382
1373 2 9.046 -10.884 30.6
1374 2 6.481 -1.46 23.293
1375 2 12.64 -3.6 16.1559
1376 2 4.427 -6.89 21.931
1377 2 10.09 -2.93 29.86
1378 2 12.87 -7.873 24.823
1379 2 13.81 -0.97 17.358
1380 2 11.7 -12.17 23.686
1381 2 2.483 -10.314 21.357
1382 2 1.164 -5.749 23.344
1383 2 6.953 -4.28 24.865
1384 2 6.08 -13.665 16.2437
1385 2 9.625 -1.89 17.592
1386 2 8.577 -4.31 21.228
1387 2 2.044 -0.49 15.6031
1388 2 6.328 -8.767 27.16
1389 2 5.983 -4.88 17.716
1390 2 3.832 -3.3 20.373
1391 2 11.18 -11.282 20.16
1392 2 7.962 -1.0 27.04
1393 2 9.05 -14.063 25.71
1394 2 8.352 -10.854 22.912
1395 2 5.45 -8.004 15.4792
1396 2 0.9584 -11.82 24.64
1397 2 0.7657 -11.958 28.17
1398 2 5.833 -12.481 20.846
1399 2 11.88 -12.693 15.7552
1400 2 10.9 -8.205 29.64
1401 2 14.72 -7.034 29.52
1402 2 5.145 -14.9998 26.97
1403 2 12.76 -5.27 28.43
1404 2 10.12 -2.17 23.9
1405 2 7.05 -0.33 20.201
1406 2 6.83 -10.459 20.882
1407 2 4.191 -1.45 17.473
1408 2 7.162 -5.86 27.96
1409 2 9.105 -14.7679 30.1
1410 2 5.213 -4.31 28.9
1411 2 6.35 -10.161 17.328
1412 2 4.623 -11.294 29.82
1413 2 2.612 -4.93 16.2386
1414 2 9.762 -7.533 19.671
1415 2 4.323 -5.868 25.78
1416 2 1.336 -15.1191 26.72
1417 2 14.59 -6.192 17.853
1418 2 13.35 -1.17 22.728
1419 2 5.285 -10.684 24.28
1420 2 15.34 -12.735 16.346
1421 2 3.912 -3.11 23.83
1422 2 0.3167 -9.886 18.603
1423 2 3.448 -9.374 24.939
1424 2 3.327 -8.101 19.135
1425 2 9.172 -5.358 16.462
1426 2 13.43 -0.39 20.559
1427 2 14.11 -9.309 22.121
1428 2 13.63 -0.3 29.27
1429 2 11.37 -12.57 27.67
1430 2 2.17 -8.41 16.0224
1431 2 9.396 -14.206 21.788
1432 2 11.79 -4.24 25.49
1433 2 13.9 -10.298 30.61
1434 2 15.17 -2.76 25.77
1435 2 2.774 -8.767 27.97
1436 2 13.3 -9.553 26.83
1437 2 4.758 -15.25145 20.601
1438 2 6.21 -11.082 26.32
1439 2 9.18 -13.13 18.279
1440 2 14.97 -12.73 21.159
1441 1 4.045 11.66 -12.902
1442 1 2.342 7.461 -9.934
1443 1 0.4732 1.944 -4.3
1444 1 0.6542 4.913 -4.34
1445 1 3.465 15.24 -2.68
1446 1 0.3709 12.65 -2.68
1447 1 4.883 9.768 -0.09
1448 1 4.18 7.296 -4.23
1449 1 0.6001 4.651 -9.862
1450 1 9.237 9.63 -1.86
1451 1 10.35 11.54 -13.957
1452 1 7.688 1.924 -10.695
1453 1 12.62 9.948 -12.927
1454 1 15.04 15.33 -14.5895
1455 1 10.24 2.565 -0.91
1456 1 13.05 4.047 -8.944
1457 1 5.615 13.95 -3.51
1458 1 14.18 7.755 -11.207
1459 1 10.06 3.625 -8.806
1460 1 10.33 9.713 -5.823
1461 1 13.23 9.408 -4.51
1462 1 8.264 14.76 -6.09
1463 1 13.14 6.71 -1.48
1464 1 14.71 12.26 -8.404
1465 1 13.34 1.331 -2.31
1466 1 0.1458 10.29 -4.58
1467 1 3.617 14.28 -11.208
1468 1 8.836 10.99 -7.203
1469 1 15.31 14.17 -11.178
1470 1 2.041 5.781 -13.015
1471 1 3.611 6.208 -0.83
1472 1 8.55 13.93 -15.2015
1473 1 5.708 12.92 -5.823
1474 1 7.706 1.069 -2.9
1475 1 4.926 3.943 -14.3831
1476 1 14.0 2.814 -0.85
1477 1 10.3 9.547 -9.528
1478 1 3.209 9.774 -7.137
1479 1 10.55 8.545 -13.009
1480 1 7.792 3.295 -14.001
1481 2 1.5 10.46 -2.72
1482 2 10.56 6.405 -14.193
1483 2 10.71 8.176 -7.692
1484 2 9.547 8.553 -3.84
1485 2 12.4 10.2 -10.292
1486 2 0.3368 12.15 -10.63
1487 2 2.772 3.534 -12.418
1488 2 13.69 1.078 -4.64
1489 2 2.659 1.144 -0.74
1490 2 3.794 13.53 -2.05
1491 2 0.6725 8.874 -10.241
1492 2 1.66 0.3739 -11.318
1493 2 9.046 4.466 -0.1
1494 2 6.481 13.89 -7.407
1495 2 12.64 11.75 -14.5441
1496 2 4.427 8.46 -8.769
1497 2 10.09 12.42 -0.84
1498 2 12.87 7.477 -5.877
1499 2 13.81 14.38 -13.342
1500 2 11.7 3.18 -7.014
1501 2 2.483 5.036 -9.343
1502 2 1.164 9.601 -7.356
1503 2 6.953 11.07 -5.835
1504 2 6.08 1.685 -14.4563
1505 2 9.625 13.46 -13.108
1506 2 8.577 11.04 -9.472
1507 2 2.044 14.86 -15.0969
1508 2 6.328 6.583 -3.54
1509 2 5.983 10.47 -12.984
1510 2 3.832 12.05 -10.327
1511 2 11.18 4.068 -10.54
1512 2 7.962 14.35 -3.66
1513 2 9.05 1.287 -4.99
1514 2 8.352 4.496 -7.788
1515 2 5.45 7.346 -15.2208
1516 2 0.9584 3.53 -6.06
1517 2 0.7657 3.392 -2.53
1518 2 5.833 2.869 -9.854
1519 2 11.88 2.657 -14.9448
1520 2 10.9 7.145 -1.06
1521 2 14.72 8.316 -1.18
1522 2 5.145 0.3502 -3.73
1523 2 12.76 10.08 -2.27
1524 2 10.12 13.18 -6.8
1525 2 7.05 15.02 -10.499
1526 2 6.83 4.891 -9.818
1527 2 4.191 13.9 -13.227
1528 2 7.162 9.49 -2.74
1529 2 9.105 0.5821 -0.6
1530 2 5.213 11.04 -1.8
1531 2 6.35 5.189 -13.372
1532 2 4.623 4.056 -0.88
1533 2 2.612 10.42 -14.4614
1534 2 9.762 7.817 -11.029
1535 2 4.323 9.482 -4.92
1536 2 1.336 0.2309 -3.98
1537 2 14.59 9.158 -12.847
1538 2 13.35 14.18 -7.972
1539 2 5.285 4.666 -6.42
1540 2 15.34 2.615 -14.354
1541 2 3.912 12.24 -6.87
1542 2 0.3167 5.464 -12.097
1543 2 3.448 5.976 -5.761
1544 2 3.327 7.249 -11.565
1545 2 9.172 9.992 -14.238
1546 2 13.43 14.96 -10.141
1547 2 14.11 6.041 -8.579
1548 2 13.63 15.05 -1.43
1549 2 11.37 2.78 -3.03
1550 2 2.17 6.94 -14.6776
1551 2 9.396 1.144 -8.912
1552 2 11.79 11.11 -5.21
1553 2 13.9 5.052 -0.09
1554 2 15.17 12.59 -4.93
1555 2 2.774 6.583 -2.73
1556 2 13.3 5.797 -3.87
1557 2 4.758 0.09855 -10.099
1558 2 6.21 4.268 -4.38
1559 2 9.18 2.22 -12.421
1560 2 14.97 2.62 -9.541
1561 1 4.045 11.66 2.448
1562 1 2.342 7.461 5.416
1563 1 0.4732 1.944 11.05
1564 1 0.6542 4.913 11.01
1565 1 3.465 15.24 12.67
1566 1 0.3709 12.65 12.67
1567 1 4.883 9.768 15.26
1568 1 4.18 7.296 11.12
1569 1 0.6001 4.651 5.488
1570 1 9.237 9.63 13.49
1571 1 10.35 11.54 1.393
1572 1 7.688 1.924 4.655
1573 1 12.62 9.948 2.423
1574 1 15.04 15.33 0.7605
1575 1 10.24 2.565 14.44
1576 1 13.05 4.047 6.406
1577 1 5.615 13.95 11.84
1578 1 14.18 7.755 4.143
1579 1 10.06 3.625 6.544
1580 1 10.33 9.713 9.527
1581 1 13.23 9.408 10.84
1582 1 8.264 14.76 9.26
1583 1 13.14 6.71 13.87
1584 1 14.71 12.26 6.946
1585 1 13.34 1.331 13.04
1586 1 0.1458 10.29 10.77
1587 1 3.617 14.28 4.142
1588 1 8.836 10.99 8.147
1589 1 15.31 14.17 4.172
1590 1 2.041 5.781 2.335
1591 1 3.611 6.208 14.52
1592 1 8.55 13.93 0.1485
1593 1 5.708 12.92 9.527
1594 1 7.706 1.069 12.45
1595 1 4.926 3.943 0.9669
1596 1 14.0 2.814 14.5
1597 1 10.3 9.547 5.822
1598 1 3.209 9.774 8.213
1599 1 10.55 8.545 2.341
1600 1 7.792 3.295 1.349
1601 2 1.5 10.46 12.63
1602 2 10.56 6.405 1.157
1603 2 10.71 8.176 7.658
1604 2 9.547 8.553 11.51
1605 2 12.4 10.2 5.058
1606 2 0.3368 12.15 4.72
1607 2 2.772 3.534 2.932
1608 2 13.69 1.078 10.71
1609 2 2.659 1.144 14.61
1610 2 3.794 13.53 13.3
1611 2 0.6725 8.874 5.109
1612 2 1.66 0.3739 4.032
1613 2 9.046 4.466 15.25
1614 2 6.481 13.89 7.943
1615 2 12.64 11.75 0.8059
1616 2 4.427 8.46 6.581
1617 2 10.09 12.42 14.51
1618 2 12.87 7.477 9.473
1619 2 13.81 14.38 2.008
1620 2 11.7 3.18 8.336
1621 2 2.483 5.036 6.007
1622 2 1.164 9.601 7.994
1623 2 6.953 11.07 9.515
1624 2 6.08 1.685 0.8937
1625 2 9.625 13.46 2.242
1626 2 8.577 11.04 5.878
1627 2 2.044 14.86 0.2531
1628 2 6.328 6.583 11.81
1629 2 5.983 10.47 2.366
1630 2 3.832 12.05 5.023
1631 2 11.18 4.068 4.81
1632 2 7.962 14.35 11.69
1633 2 9.05 1.287 10.36
1634 2 8.352 4.496 7.562
1635 2 5.45 7.346 0.1292
1636 2 0.9584 3.53 9.29
1637 2 0.7657 3.392 12.82
1638 2 5.833 2.869 5.496
1639 2 11.88 2.657 0.4052
1640 2 10.9 7.145 14.29
1641 2 14.72 8.316 14.17
1642 2 5.145 0.3502 11.62
1643 2 12.76 10.08 13.08
1644 2 10.12 13.18 8.55
1645 2 7.05 15.02 4.851
1646 2 6.83 4.891 5.532
1647 2 4.191 13.9 2.123
1648 2 7.162 9.49 12.61
1649 2 9.105 0.5821 14.75
1650 2 5.213 11.04 13.55
1651 2 6.35 5.189 1.978
1652 2 4.623 4.056 14.47
1653 2 2.612 10.42 0.8886
1654 2 9.762 7.817 4.321
1655 2 4.323 9.482 10.43
1656 2 1.336 0.2309 11.37
1657 2 14.59 9.158 2.503
1658 2 13.35 14.18 7.378
1659 2 5.285 4.666 8.93
1660 2 15.34 2.615 0.996
1661 2 3.912 12.24 8.48
1662 2 0.3167 5.464 3.253
1663 2 3.448 5.976 9.589
1664 2 3.327 7.249 3.785
1665 2 9.172 9.992 1.112
1666 2 13.43 14.96 5.209
1667 2 14.11 6.041 6.771
1668 2 13.63 15.05 13.92
1669 2 11.37 2.78 12.32
1670 2 2.17 6.94 0.6724
1671 2 9.396 1.144 6.438
1672 2 11.79 11.11 10.14
1673 2 13.9 5.052 15.26
1674 2 15.17 12.59 10.42
1675 2 2.774 6.583 12.62
1676 2 13.3 5.797 11.48
1677 2 4.758 0.09855 5.251
1678 2 6.21 4.268 10.97
1679 2 9.18 2.22 2.929
1680 2 14.97 2.62 5.809
1681 1 4.045 11.66 17.798
1682 1 2.342 7.461 20.766
1683 1 0.4732 1.944 26.4
1684 1 0.6542 4.913 26.36
1685 1 3.465 15.24 28.02
1686 1 0.3709 12.65 28.02
1687 1 4.883 9.768 30.61
1688 1 4.18 7.296 26.47
1689 1 0.6001 4.651 20.838
1690 1 9.237 9.63 28.84
1691 1 10.35 11.54 16.743
1692 1 7.688 1.924 20.005
1693 1 12.62 9.948 17.773
1694 1 15.04 15.33 16.1105
1695 1 10.24 2.565 29.79
1696 1 13.05 4.047 21.756
1697 1 5.615 13.95 27.19
1698 1 14.18 7.755 19.493
1699 1 10.06 3.625 21.894
1700 1 10.33 9.713 24.877
1701 1 13.23 9.408 26.19
1702 1 8.264 14.76 24.61
1703 1 13.14 6.71 29.22
1704 1 14.71 12.26 22.296
1705 1 13.34 1.331 28.39
1706 1 0.1458 10.29 26.12
1707 1 3.617 14.28 19.492
1708 1 8.836 10.99 23.497
1709 1 15.31 14.17 19.522
1710 1 2.041 5.781 17.685
1711 1 3.611 6.208 29.87
1712 1 8.55 13.93 15.4985
1713 1 5.708 12.92 24.877
1714 1 7.706 1.069 27.8
1715 1 4.926 3.943 16.3169
1716 1 14.0 2.814 29.85
1717 1 10.3 9.547 21.172
1718 1 3.209 9.774 23.563
1719 1 10.55 8.545 17.691
1720 1 7.792 3.295 16.699
1721 2 1.5 10.46 27.98
1722 2 10.56 6.405 16.507
1723 2 10.71 8.176 23.008
1724 2 9.547 8.553 26.86
1725 2 12.4 10.2 20.408
1726 2 0.3368 12.15 20.07
1727 2 2.772 3.534 18.282
1728 2 13.69 1.078 26.06
1729 2 2.659 1.144 29.96
1730 2 3.794 13.53 28.65
1731 2 0.6725 8.874 20.459
1732 2 1.66 0.3739 19.382
1733 2 9.046 4.466 30.6
1734 2 6.481 13.89 23.293
1735 2 12.64 11.75 16.1559
1736 2 4.427 8.46 21.931
1737 2 10.09 12.42 29.86
1738 2 12.87 7.477 24.823
1739 2 13.81 14.38 17.358
1740 2 11.7 3.18 23.686
1741 2 2.483 5.036 21.357
1742 2 1.164 9.601 23.344
1743 2 6.953 11.07 24.865
1744 2 6.08 1.685 16.2437
1745 2 9.625 13.46 17.592
1746 2 8.577 11.04 21.228
1747 2 2.044 14.86 15.6031
1748 2 6.328 6.583 27.16
1749 2 5.983 10.47 17.716
1750 2 3.832 12.05 20.373
1751 2 11.18 4.068 20.16
1752 2 7.962 14.35 27.04
1753 2 9.05 1.287 25.71
1754 2 8.352 4.496 22.912
1755 2 5.45 7.346 15.4792
1756 2 0.9584 3.53 24.64
1757 2 0.7657 3.392 28.17
1758 2 5.833 2.869 20.846
1759 2 11.88 2.657 15.7552
1760 2 10.9 7.145 29.64
1761 2 14.72 8.316 29.52
1762 2 5.145 0.3502 26.97
1763 2 12.76 10.08 28.43
1764 2 10.12 13.18 23.9
1765 2 7.05 15.02 20.201
1766 2 6.83 4.891 20.882
1767 2 4.191 13.9 17.473
1768 2 7.162 9.49 27.96
1769 2 9.105 0.5821 30.1
1770 2 5.213 11.04 28.9
1771 2 6.35 5.189 17.328
1772 2 4.623 4.056 29.82
1773 2 2.612 10.42 16.2386
1774 2 9.762 7.817 19.671
1775 2 4.323 9.482 25.78
1776 2 1.336 0.2309 26.72
1777 2 14.59 9.158 17.853
1778 2 13.35 14.18 22.728
1779 2 5.285 4.666 24.28
1780 2 15.34 2.615 16.346
1781 2 3.912 12.24 23.83
1782 2 0.3167 5.464 18.603
1783 2 3.448 5.976 24.939
1784 2 3.327 7.249 19.135
1785 2 9.172 9.992 16.462
1786 2 13.43 14.96 20.559
1787 2 14.11 6.041 22.121
1788 2 13.63 15.05 29.27
1789 2 11.37 2.78 27.67
1790 2 2.17 6.94 16.0224
1791 2 9.396 1.144 21.788
1792 2 11.79 11.11 25.49
1793 2 13.9 5.052 30.61
1794 2 15.17 12.59 25.77
1795 2 2.774 6.583 27.97
1796 2 13.3 5.797 26.83
1797 2 4.758 0.09855 20.601
1798 2 6.21 4.268 26.32
1799 2 9.18 2.22 18.279
1800 2 14.97 2.62 21.159
1801 1 4.045 27.01 -12.902
1802 1 2.342 22.811 -9.934
1803 1 0.4732 17.294 -4.3
1804 1 0.6542 20.263 -4.34
1805 1 3.465 30.59 -2.68
1806 1 0.3709 28.0 -2.68
1807 1 4.883 25.118 -0.09
1808 1 4.18 22.646 -4.23
1809 1 0.6001 20.001 -9.862
1810 1 9.237 24.98 -1.86
1811 1 10.35 26.89 -13.957
1812 1 7.688 17.274 -10.695
1813 1 12.62 25.298 -12.927
1814 1 15.04 30.68 -14.5895
1815 1 10.24 17.915 -0.91
1816 1 13.05 19.397 -8.944
1817 1 5.615 29.3 -3.51
1818 1 14.18 23.105 -11.207
1819 1 10.06 18.975 -8.806
1820 1 10.33 25.063 -5.823
1821 1 13.23 24.758 -4.51
1822 1 8.264 30.11 -6.09
1823 1 13.14 22.06 -1.48
1824 1 14.71 27.61 -8.404
1825 1 13.34 16.681 -2.31
1826 1 0.1458 25.64 -4.58
1827 1 3.617 29.63 -11.208
1828 1 8.836 26.34 -7.203
1829 1 15.31 29.52 -11.178
1830 1 2.041 21.131 -13.015
1831 1 3.611 21.558 -0.83
1832 1 8.55 29.28 -15.2015
1833 1 5.708 28.27 -5.823
1834 1 7.706 16.419 -2.9
1835 1 4.926 19.293 -14.3831
1836 1 14.0 18.164 -0.85
1837 1 10.3 24.897 -9.528
1838 1 3.209 25.124 -7.137
1839 1 10.55 23.895 -13.009
1840 1 7.792 18.645 -14.001
1841 2 1.5 25.81 -2.72
1842 2 10.56 21.755 -14.193
1843 2 10.71 23.526 -7.692
1844 2 9.547 23.903 -3.84
1845 2 12.4 25.55 -10.292
1846 2 0.3368 27.5 -10.63
1847 2 2.772 18.884 -12.418
1848 2 13.69 16.428 -4.64
1849 2 2.659 16.494 -0.74
1850 2 3.794 28.88 -2.05
1851 2 0.6725 24.224 -10.241
1852 2 1.66 15.7239 -11.318
1853 2 9.046 19.816 -0.1
1854 2 6.481 29.24 -7.407
1855 2 12.64 27.1 -14.5441
1856 2 4.427 23.81 -8.769
1857 2 10.09 27.77 -0.84
1858 2 12.87 22.827 -5.877
1859 2 13.81 29.73 -13.342
1860 2 11.7 18.53 -7.014
1861 2 2.483 20.386 -9.343
1862 2 1.164 24.951 -7.356
1863 2 6.953 26.42 -5.835
1864 2 6.08 17.035 -14.4563
1865 2 9.625 28.81 -13.108
1866 2 8.577 26.39 -9.472
1867 2 2.044 30.21 -15.0969
1868 2 6.328 21.933 -3.54
1869 2 5.983 25.82 -12.984
1870 2 3.832 27.4 -10.327
1871 2 11.18 19.418 -10.54
1872 2 7.962 29.7 -3.66
1873 2 9.05 16.637 -4.99
1874 2 8.352 19.846 -7.788
1875 2 5.45 22.696 -15.2208
1876 2 0.9584 18.88 -6.06
1877 2 0.7657 18.742 -2.53
1878 2 5.833 18.219 -9.854
1879 2 11.88 18.007 -14.9448
1880 2 10.9 22.495 -1.06
1881 2 14.72 23.666 -1.18
1882 2 5.145 15.7002 -3.73
1883 2 12.76 25.43 -2.27
1884 2 10.12 28.53 -6.8
1885 2 7.05 30.37 -10.499
1886 2 6.83 20.241 -9.818
1887 2 4.191 29.25 -13.227
1888 2 7.162 24.84 -2.74
1889 2 9.105 15.9321 -0.6
1890 2 5.213 26.39 -1.8
1891 2 6.35 20.539 -13.372
1892 2 4.623 19.406 -0.88
1893 2 2.612 25.77 -14.4614
1894 2 9.762 23.167 -11.029
1895 2 4.323 24.832 -4.92
1896 2 1.336 15.5809 -3.98
1897 2 14.59 24.508 -12.847
1898 2 13.35 29.53 -7.972
1899 2 5.285 20.016 -6.42
1900 2 15.34 17.965 -14.354
1901 2 3.912 27.59 -6.87
1902 2 0.3167 20.814 -12.097
1903 2 3.448 21.326 -5.761
1904 2 3.327 22.599 -11.565
1905 2 9.172 25.342 -14.238
1906 2 13.43 30.31 -10.141
1907 2 14.11 21.391 -8.579
1908 2 13.63 30.4 -1.43
1909 2 11.37 18.13 -3.03
1910 2 2.17 22.29 -14.6776
1911 2 9.396 16.494 -8.912
1912 2 11.79 26.46 -5.21
1913 2 13.9 20.402 -0.09
1914 2 15.17 27.94 -4.93
1915 2 2.774 21.933 -2.73
1916 2 13.3 21.147 -3.87
1917 2 4.758 15.44855 -10.099
1918 2 6.21 19.618 -4.38
1919 2 9.18 17.57 -12.421
1920 2 14.97 17.97 -9.541
1921 1 4.045 27.01 2.448
1922 1 2.342 22.811 5.416
1923 1 0.4732 17.294 11.05
1924 1 0.6542 20.263 11.01
1925 1 3.465 30.59 12.67
1926 1 0.3709 28.0 12.67
1927 1 4.883 25.118 15.26
1928 1 4.18 22.646 11.12
1929 1 0.6001 20.001 5.488
1930 1 9.237 24.98 13.49
1931 1 10.35 26.89 1.393
1932 1 7.688 17.274 4.655
1933 1 12.62 25.298 2.423
1934 1 15.04 30.68 0.7605
1935 1 10.24 17.915 14.44
1936 1 13.05 19.397 6.406
1937 1 5.615 29.3 11.84
1938 1 14.18 23.105 4.143
1939 1 10.06 18.975 6.544
1940 1 10.33 25.063 9.527
1941 1 13.23 24.758 10.84
1942 1 8.264 30.11 9.26
1943 1 13.14 22.06 13.87
1944 1 14.71 27.61 6.946
1945 1 13.34 16.681 13.04
1946 1 0.1458 25.64 10.77
1947 1 3.617 29.63 4.142
1948 1 8.836 26.34 8.147
1949 1 15.31 29.52 4.172
1950 1 2.041 21.131 2.335
1951 1 3.611 21.558 14.52
1952 1 8.55 29.28 0.1485
1953 1 5.708 28.27 9.527
1954 1 7.706 16.419 12.45
1955 1 4.926 19.293 0.9669
1956 1 14.0 18.164 14.5
1957 1 10.3 24.897 5.822
1958 1 3.209 25.124 8.213
1959 1 10.55 23.895 2.341
1960 1 7.792 18.645 1.349
1961 2 1.5 25.81 12.63
1962 2 10.56 21.755 1.157
1963 2 10.71 23.526 7.658
1964 2 9.547 23.903 11.51
1965 2 12.4 25.55 5.058
1966 2 0.3368 27.5 4.72
1967 2 2.772 18.884 2.932
1968 2 13.69 16.428 10.71
1969 2 2.659 16.494 14.61
1970 2 3.794 28.88 13.3
1971 2 0.6725 24.224 5.109
1972 2 1.66 15.7239 4.032
1973 2 9.046 19.816 15.25
1974 2 6.481 29.24 7.943
1975 2 12.64 27.1 0.8059
1976 2 4.427 23.81 6.581
1977 2 10.09 27.77 14.51
1978 2 12.87 22.827 9.473
1979 2 13.81 29.73 2.008
1980 2 11.7 18.53 8.336
1981 2 2.483 20.386 6.007
1982 2 1.164 24.951 7.994
1983 2 6.953 26.42 9.515
1984 2 6.08 17.035 0.8937
1985 2 9.625 28.81 2.242
1986 2 8.577 26.39 5.878
1987 2 2.044 30.21 0.2531
1988 2 6.328 21.933 11.81
1989 2 5.983 25.82 2.366
1990 2 3.832 27.4 5.023
1991 2 11.18 19.418 4.81
1992 2 7.962 29.7 11.69
1993 2 9.05 16.637 10.36
1994 2 8.352 19.846 7.562
1995 2 5.45 22.696 0.1292
1996 2 0.9584 18.88 9.29
1997 2 0.7657 18.742 12.82
1998 2 5.833 18.219 5.496
1999 2 11.88 18.007 0.4052
2000 2 10.9 22.495 14.29
2001 2 14.72 23.666 14.17
2002 2 5.145 15.7002 11.62
2003 2 12.76 25.43 13.08
2004 2 10.12 28.53 8.55
2005 2 7.05 30.37 4.851
2006 2 6.83 20.241 5.532
2007 2 4.191 29.25 2.123
2008 2 7.162 24.84 12.61
2009 2 9.105 15.9321 14.75
2010 2 5.213 26.39 13.55
2011 2 6.35 20.539 1.978
2012 2 4.623 19.406 14.47
2013 2 2.612 25.77 0.8886
2014 2 9.762 23.167 4.321
2015 2 4.323 24.832 10.43
2016 2 1.336 15.5809 11.37
2017 2 14.59 24.508 2.503
2018 2 13.35 29.53 7.378
2019 2 5.285 20.016 8.93
2020 2 15.34 17.965 0.996
2021 2 3.912 27.59 8.48
2022 2 0.3167 20.814 3.253
2023 2 3.448 21.326 9.589
2024 2 3.327 22.599 3.785
2025 2 9.172 25.342 1.112
2026 2 13.43 30.31 5.209
2027 2 14.11 21.391 6.771
2028 2 13.63 30.4 13.92
2029 2 11.37 18.13 12.32
2030 2 2.17 22.29 0.6724
2031 2 9.396 16.494 6.438
2032 2 11.79 26.46 10.14
2033 2 13.9 20.402 15.26
2034 2 15.17 27.94 10.42
2035 2 2.774 21.933 12.62
2036 2 13.3 21.147 11.48
2037 2 4.758 15.44855 5.251
2038 2 6.21 19.618 10.97
2039 2 9.18 17.57 2.929
2040 2 14.97 17.97 5.809
2041 1 4.045 27.01 17.798
2042 1 2.342 22.811 20.766
2043 1 0.4732 17.294 26.4
2044 1 0.6542 20.263 26.36
2045 1 3.465 30.59 28.02
2046 1 0.3709 28.0 28.02
2047 1 4.883 25.118 30.61
2048 1 4.18 22.646 26.47
2049 1 0.6001 20.001 20.838
2050 1 9.237 24.98 28.84
2051 1 10.35 26.89 16.743
2052 1 7.688 17.274 20.005
2053 1 12.62 25.298 17.773
2054 1 15.04 30.68 16.1105
2055 1 10.24 17.915 29.79
2056 1 13.05 19.397 21.756
2057 1 5.615 29.3 27.19
2058 1 14.18 23.105 19.493
2059 1 10.06 18.975 21.894
2060 1 10.33 25.063 24.877
2061 1 13.23 24.758 26.19
2062 1 8.264 30.11 24.61
2063 1 13.14 22.06 29.22
2064 1 14.71 27.61 22.296
2065 1 13.34 16.681 28.39
2066 1 0.1458 25.64 26.12
2067 1 3.617 29.63 19.492
2068 1 8.836 26.34 23.497
2069 1 15.31 29.52 19.522
2070 1 2.041 21.131 17.685
2071 1 3.611 21.558 29.87
2072 1 8.55 29.28 15.4985
2073 1 5.708 28.27 24.877
2074 1 7.706 16.419 27.8
2075 1 4.926 19.293 16.3169
2076 1 14.0 18.164 29.85
2077 1 10.3 24.897 21.172
2078 1 3.209 25.124 23.563
2079 1 10.55 23.895 17.691
2080 1 7.792 18.645 16.699
2081 2 1.5 25.81 27.98
2082 2 10.56 21.755 16.507
2083 2 10.71 23.526 23.008
2084 2 9.547 23.903 26.86
2085 2 12.4 25.55 20.408
2086 2 0.3368 27.5 20.07
2087 2 2.772 18.884 18.282
2088 2 13.69 16.428 26.06
2089 2 2.659 16.494 29.96
2090 2 3.794 28.88 28.65
2091 2 0.6725 24.224 20.459
2092 2 1.66 15.7239 19.382
2093 2 9.046 19.816 30.6
2094 2 6.481 29.24 23.293
2095 2 12.64 27.1 16.1559
2096 2 4.427 23.81 21.931
2097 2 10.09 27.77 29.86
2098 2 12.87 22.827 24.823
2099 2 13.81 29.73 17.358
2100 2 11.7 18.53 23.686
2101 2 2.483 20.386 21.357
2102 2 1.164 24.951 23.344
2103 2 6.953 26.42 24.865
2104 2 6.08 17.035 16.2437
2105 2 9.625 28.81 17.592
2106 2 8.577 26.39 21.228
2107 2 2.044 30.21 15.6031
2108 2 6.328 21.933 27.16
2109 2 5.983 25.82 17.716
2110 2 3.832 27.4 20.373
2111 2 11.18 19.418 20.16
2112 2 7.962 29.7 27.04
2113 2 9.05 16.637 25.71
2114 2 8.352 19.846 22.912
2115 2 5.45 22.696 15.4792
2116 2 0.9584 18.88 24.64
2117 2 0.7657 18.742 28.17
2118 2 5.833 18.219 20.846
2119 2 11.88 18.007 15.7552
2120 2 10.9 22.495 29.64
2121 2 14.72 23.666 29.52
2122 2 5.145 15.7002 26.97
2123 2 12.76 25.43 28.43
2124 2 10.12 28.53 23.9
2125 2 7.05 30.37 20.201
2126 2 6.83 20.241 20.882
2127 2 4.191 29.25 17.473
2128 2 7.162 24.84 27.96
2129 2 9.105 15.9321 30.1
2130 2 5.213 26.39 28.9
2131 2 6.35 20.539 17.328
2132 2 4.623 19.406 29.82
2133 2 2.612 25.77 16.2386
2134 2 9.762 23.167 19.671
2135 2 4.323 24.832 25.78
2136 2 1.336 15.5809 26.72
2137 2 14.59 24.508 17.853
2138 2 13.35 29.53 22.728
2139 2 5.285 20.016 24.28
2140 2 15.34 17.965 16.346
2141 2 3.912 27.59 23.83
2142 2 0.3167 20.814 18.603
2143 2 3.448 21.326 24.939
2144 2 3.327 22.599 19.135
2145 2 9.172 25.342 16.462
2146 2 13.43 30.31 20.559
2147 2 14.11 21.391 22.121
2148 2 13.63 30.4 29.27
2149 2 11.37 18.13 27.67
2150 2 2.17 22.29 16.0224
2151 2 9.396 16.494 21.788
2152 2 11.79 26.46 25.49
2153 2 13.9 20.402 30.61
2154 2 15.17 27.94 25.77
2155 2 2.774 21.933 27.97
2156 2 13.3 21.147 26.83
2157 2 4.758 15.44855 20.601
2158 2 6.21 19.618 26.32
2159 2 9.18 17.57 18.279
2160 2 14.97 17.97 21.159
2161 1 19.395 -3.69 -12.902
2162 1 17.692 -7.889 -9.934
2163 1 15.8232 -13.406 -4.3
2164 1 16.0042 -10.437 -4.34
2165 1 18.815 -0.11 -2.68
2166 1 15.7209 -2.7 -2.68
2167 1 20.233 -5.582 -0.09
2168 1 19.53 -8.054 -4.23
2169 1 15.9501 -10.699 -9.862
2170 1 24.587 -5.72 -1.86
2171 1 25.7 -3.81 -13.957
2172 1 23.038 -13.426 -10.695
2173 1 27.97 -5.402 -12.927
2174 1 30.39 -0.02 -14.5895
2175 1 25.59 -12.785 -0.91
2176 1 28.4 -11.303 -8.944
2177 1 20.965 -1.4 -3.51
2178 1 29.53 -7.595 -11.207
2179 1 25.41 -11.725 -8.806
2180 1 25.68 -5.637 -5.823
2181 1 28.58 -5.942 -4.51
2182 1 23.614 -0.59 -6.09
2183 1 28.49 -8.64 -1.48
2184 1 30.06 -3.09 -8.404
2185 1 28.69 -14.019 -2.31
2186 1 15.4958 -5.06 -4.58
2187 1 18.967 -1.07 -11.208
2188 1 24.186 -4.36 -7.203
2189 1 30.66 -1.18 -11.178
2190 1 17.391 -9.569 -13.015
2191 1 18.961 -9.142 -0.83
2192 1 23.9 -1.42 -15.2015
2193 1 21.058 -2.43 -5.823
2194 1 23.056 -14.281 -2.9
2195 1 20.276 -11.407 -14.3831
2196 1 29.35 -12.536 -0.85
2197 1 25.65 -5.803 -9.528
2198 1 18.559 -5.576 -7.137
2199 1 25.9 -6.805 -13.009
2200 1 23.142 -12.055 -14.001
2201 2 16.85 -4.89 -2.72
2202 2 25.91 -8.945 -14.193
2203 2 26.06 -7.174 -7.692
2204 2 24.897 -6.797 -3.84
2205 2 27.75 -5.15 -10.292
2206 2 15.6868 -3.2 -10.63
2207 2 18.122 -11.816 -12.418
2208 2 29.04 -14.272 -4.64
2209 2 18.009 -14.206 -0.74
2210 2 19.144 -1.82 -2.05
2211 2 16.0225 -6.476 -10.241
2212 2 17.01 -14.9761 -11.318
2213 2 24.396 -10.884 -0.1
2214 2 21.831 -1.46 -7.407
2215 2 27.99 -3.6 -14.5441
2216 2 19.777 -6.89 -8.769
2217 2 25.44 -2.93 -0.84
2218 2 28.22 -7.873 -5.877
2219 2 29.16 -0.97 -13.342
2220 2 27.05 -12.17 -7.014
2221 2 17.833 -10.314 -9.343
2222 2 16.514 -5.749 -7.356
2223 2 22.303 -4.28 -5.835
2224 2 21.43 -13.665 -14.4563
2225 2 24.975 -1.89 -13.108
2226 2 23.927 -4.31 -9.472
2227 2 17.394 -0.49 -15.0969
2228 2 21.678 -8.767 -3.54
2229 2 21.333 -4.88 -12.984
2230 2 19.182 -3.3 -10.327
2231 2 26.53 -11.282 -10.54
2232 2 23.312 -1.0 -3.66
2233 2 24.4 -14.063 -4.99
2234 2 23.702 -10.854 -7.788
2235 2 20.8 -8.004 -15.2208
2236 2 16.3084 -11.82 -6.06
2237 2 16.1157 -11.958 -2.53
2238 2 21.183 -12.481 -9.854
2239 2 27.23 -12.693 -14.9448
2240 2 26.25 -8.205 -1.06
2241 2 30.07 -7.034 -1.18
2242 2 20.495 -14.9998 -3.73
2243 2 28.11 -5.27 -2.27
2244 2 25.47 -2.17 -6.8
2245 2 22.4 -0.33 -10.499
2246 2 22.18 -10.459 -9.818
2247 2 19.541 -1.45 -13.227
2248 2 22.512 -5.86 -2.74
2249 2 24.455 -14.7679 -0.6
2250 2 20.563 -4.31 -1.8
2251 2 21.7 -10.161 -13.372
2252 2 19.973 -11.294 -0.88
2253 2 17.962 -4.93 -14.4614
2254 2 25.112 -7.533 -11.029
2255 2 19.673 -5.868 -4.92
2256 2 16.686 -15.1191 -3.98
2257 2 29.94 -6.192 -12.847
2258 2 28.7 -1.17 -7.972
2259 2 20.635 -10.684 -6.42
2260 2 30.69 -12.735 -14.354
2261 2 19.262 -3.11 -6.87
2262 2 15.6667 -9.886 -12.097
2263 2 18.798 -9.374 -5.761
2264 2 18.677 -8.101 -11.565
2265 2 24.522 -5.358 -14.238
2266 2 28.78 -0.39 -10.141
2267 2 29.46 -9.309 -8.579
2268 2 28.98 -0.3 -1.43
2269 2 26.72 -12.57 -3.03
2270 2 17.52 -8.41 -14.6776
2271 2 24.746 -14.206 -8.912
2272 2 27.14 -4.24 -5.21
2273 2 29.25 -10.298 -0.09
2274 2 30.52 -2.76 -4.93
2275 2 18.124 -8.767 -2.73
2276 2 28.65 -9.553 -3.87
2277 2 20.108 -15.25145 -10.099
2278 2 21.56 -11.082 -4.38
2279 2 24.53 -13.13 -12.421
2280 2 30.32 -12.73 -9.541
2281 1 19.395 -3.69 2.448
2282 1 17.692 -7.889 5.416
2283 1 15.8232 -13.406 11.05
2284 1 16.0042 -10.437 11.01
2285 1 18.815 -0.11 12.67
2286 1 15.7209 -2.7 12.67
2287 1 20.233 -5.582 15.26
2288 1 19.53 -8.054 11.12
2289 1 15.9501 -10.699 5.488
2290 1 24.587 -5.72 13.49
2291 1 25.7 -3.81 1.393
2292 1 23.038 -13.426 4.655
2293 1 27.97 -5.402 2.423
2294 1 30.39 -0.02 0.7605
2295 1 25.59 -12.785 14.44
2296 1 28.4 -11.303 6.406
2297 1 20.965 -1.4 11.84
2298 1 29.53 -7.595 4.143
2299 1 25.41 -11.725 6.544
2300 1 25.68 -5.637 9.527
2301 1 28.58 -5.942 10.84
2302 1 23.614 -0.59 9.26
2303 1 28.49 -8.64 13.87
2304 1 30.06 -3.09 6.946
2305 1 28.69 -14.019 13.04
2306 1 15.4958 -5.06 10.77
2307 1 18.967 -1.07 4.142
2308 1 24.186 -4.36 8.147
2309 1 30.66 -1.18 4.172
2310 1 17.391 -9.569 2.335
2311 1 18.961 -9.142 14.52
2312 1 23.9 -1.42 0.1485
2313 1 21.058 -2.43 9.527
2314 1 23.056 -14.281 12.45
2315 1 20.276 -11.407 0.9669
2316 1 29.35 -12.536 14.5
2317 1 25.65 -5.803 5.822
2318 1 18.559 -5.576 8.213
2319 1 25.9 -6.805 2.341
2320 1 23.142 -12.055 1.349
2321 2 16.85 -4.89 12.63
2322 2 25.91 -8.945 1.157
2323 2 26.06 -7.174 7.658
2324 2 24.897 -6.797 11.51
2325 2 27.75 -5.15 5.058
2326 2 15.6868 -3.2 4.72
2327 2 18.122 -11.816 2.932
2328 2 29.04 -14.272 10.71
2329 2 18.009 -14.206 14.61
2330 2 19.144 -1.82 13.3
2331 2 16.0225 -6.476 5.109
2332 2 17.01 -14.9761 4.032
2333 2 24.396 -10.884 15.25
2334 2 21.831 -1.46 7.943
2335 2 27.99 -3.6 0.8059
2336 2 19.777 -6.89 6.581
2337 2 25.44 -2.93 14.51
2338 2 28.22 -7.873 9.473
2339 2 29.16 -0.97 2.008
2340 2 27.05 -12.17 8.336
2341 2 17.833 -10.314 6.007
2342 2 16.514 -5.749 7.994
2343 2 22.303 -4.28 9.515
2344 2 21.43 -13.665 0.8937
2345 2 24.975 -1.89 2.242
2346 2 23.927 -4.31 5.878
2347 2 17.394 -0.49 0.2531
2348 2 21.678 -8.767 11.81
2349 2 21.333 -4.88 2.366
2350 2 19.182 -3.3 5.023
2351 2 26.53 -11.282 4.81
2352 2 23.312 -1.0 11.69
2353 2 24.4 -14.063 10.36
2354 2 23.702 -10.854 7.562
2355 2 20.8 -8.004 0.1292
2356 2 16.3084 -11.82 9.29
2357 2 16.1157 -11.958 12.82
2358 2 21.183 -12.481 5.496
2359 2 27.23 -12.693 0.4052
2360 2 26.25 -8.205 14.29
2361 2 30.07 -7.034 14.17
2362 2 20.495 -14.9998 11.62
2363 2 28.11 -5.27 13.08
2364 2 25.47 -2.17 8.55
2365 2 22.4 -0.33 4.851
2366 2 22.18 -10.459 5.532
2367 2 19.541 -1.45 2.123
2368 2 22.512 -5.86 12.61
2369 2 24.455 -14.7679 14.75
2370 2 20.563 -4.31 13.55
2371 2 21.7 -10.161 1.978
2372 2 19.973 -11.294 14.47
2373 2 17.962 -4.93 0.8886
2374 2 25.112 -7.533 4.321
2375 2 19.673 -5.868 10.43
2376 2 16.686 -15.1191 11.37
2377 2 29.94 -6.192 2.503
2378 2 28.7 -1.17 7.378
2379 2 20.635 -10.684 8.93
2380 2 30.69 -12.735 0.996
2381 2 19.262 -3.11 8.48
2382 2 15.6667 -9.886 3.253
2383 2 18.798 -9.374 9.589
2384 2 18.677 -8.101 3.785
2385 2 24.522 -5.358 1.112
2386 2 28.78 -0.39 5.209
2387 2 29.46 -9.309 6.771
2388 2 28.98 -0.3 13.92
2389 2 26.72 -12.57 12.32
2390 2 17.52 -8.41 0.6724
2391 2 24.746 -14.206 6.438
2392 2 27.14 -4.24 10.14
2393 2 29.25 -10.298 15.26
2394 2 30.52 -2.76 10.42
2395 2 18.124 -8.767 12.62
2396 2 28.65 -9.553 11.48
2397 2 20.108 -15.25145 5.251
2398 2 21.56 -11.082 10.97
2399 2 24.53 -13.13 2.929
2400 2 30.32 -12.73 5.809
2401 1 19.395 -3.69 17.798
2402 1 17.692 -7.889 20.766
2403 1 15.8232 -13.406 26.4
2404 1 16.0042 -10.437 26.36
2405 1 18.815 -0.11 28.02
2406 1 15.7209 -2.7 28.02
2407 1 20.233 -5.582 30.61
2408 1 19.53 -8.054 26.47
2409 1 15.9501 -10.699 20.838
2410 1 24.587 -5.72 28.84
2411 1 25.7 -3.81 16.743
2412 1 23.038 -13.426 20.005
2413 1 27.97 -5.402 17.773
2414 1 30.39 -0.02 16.1105
2415 1 25.59 -12.785 29.79
2416 1 28.4 -11.303 21.756
2417 1 20.965 -1.4 27.19
2418 1 29.53 -7.595 19.493
2419 1 25.41 -11.725 21.894
2420 1 25.68 -5.637 24.877
2421 1 28.58 -5.942 26.19
2422 1 23.614 -0.59 24.61
2423 1 28.49 -8.64 29.22
2424 1 30.06 -3.09 22.296
2425 1 28.69 -14.019 28.39
2426 1 15.4958 -5.06 26.12
2427 1 18.967 -1.07 19.492
2428 1 24.186 -4.36 23.497
2429 1 30.66 -1.18 19.522
2430 1 17.391 -9.569 17.685
2431 1 18.961 -9.142 29.87
2432 1 23.9 -1.42 15.4985
2433 1 21.058 -2.43 24.877
2434 1 23.056 -14.281 27.8
2435 1 20.276 -11.407 16.3169
2436 1 29.35 -12.536 29.85
2437 1 25.65 -5.803 21.172
2438 1 18.559 -5.576 23.563
2439 1 25.9 -6.805 17.691
2440 1 23.142 -12.055 16.699
2441 2 16.85 -4.89 27.98
2442 2 25.91 -8.945 16.507
2443 2 26.06 -7.174 23.008
2444 2 24.897 -6.797 26.86
2445 2 27.75 -5.15 20.408
2446 2 15.6868 -3.2 20.07
2447 2 18.122 -11.816 18.282
2448 2 29.04 -14.272 26.06
2449 2 18.009 -14.206 29.96
2450 2 19.144 -1.82 28.65
2451 2 16.0225 -6.476 20.459
2452 2 17.01 -14.9761 19.382
2453 2 24.396 -10.884 30.6
2454 2 21.831 -1.46 23.293
2455 2 27.99 -3.6 16.1559
2456 2 19.777 -6.89 21.931
2457 2 25.44 -2.93 29.86
2458 2 28.22 -7.873 24.823
2459 2 29.16 -0.97 17.358
2460 2 27.05 -12.17 23.686
2461 2 17.833 -10.314 21.357
2462 2 16.514 -5.749 23.344
2463 2 22.303 -4.28 24.865
2464 2 21.43 -13.665 16.2437
2465 2 24.975 -1.89 17.592
2466 2 23.927 -4.31 21.228
2467 2 17.394 -0.49 15.6031
2468 2 21.678 -8.767 27.16
2469 2 21.333 -4.88 17.716
2470 2 19.182 -3.3 20.373
2471 2 26.53 -11.282 20.16
2472 2 23.312 -1.0 27.04
2473 2 24.4 -14.063 25.71
2474 2 23.702 -10.854 22.912
2475 2 20.8 -8.004 15.4792
2476 2 16.3084 -11.82 24.64
2477 2 16.1157 -11.958 28.17
2478 2 21.183 -12.481 20.846
2479 2 27.23 -12.693 15.7552
2480 2 26.25 -8.205 29.64
2481 2 30.07 -7.034 29.52
2482 2 20.495 -14.9998 26.97
2483 2 28.11 -5.27 28.43
2484 2 25.47 -2.17 23.9
2485 2 22.4 -0.33 20.201
2486 2 22.18 -10.459 20.882
2487 2 19.541 -1.45 17.473
2488 2 22.512 -5.86 27.96
2489 2 24.455 -14.7679 30.1
2490 2 20.563 -4.31 28.9
2491 2 21.7 -10.161 17.328
2492 2 19.973 -11.294 29.82
2493 2 17.962 -4.93 16.2386
2494 2 25.112 -7.533 19.671
2495 2 19.673 -5.868 25.78
2496 2 16.686 -15.1191 26.72
2497 2 29.94 -6.192 17.853
2498 2 28.7 -1.17 22.728
2499 2 20.635 -10.684 24.28
2500 2 30.69 -12.735 16.346
2501 2 19.262 -3.11 23.83
2502 2 15.6667 -9.886 18.603
2503 2 18.798 -9.374 24.939
2504 2 18.677 -8.101 19.135
2505 2 24.522 -5.358 16.462
2506 2 28.78 -0.39 20.559
2507 2 29.46 -9.309 22.121
2508 2 28.98 -0.3 29.27
2509 2 26.72 -12.57 27.67
2510 2 17.52 -8.41 16.0224
2511 2 24.746 -14.206 21.788
2512 2 27.14 -4.24 25.49
2513 2 29.25 -10.298 30.61
2514 2 30.52 -2.76 25.77
2515 2 18.124 -8.767 27.97
2516 2 28.65 -9.553 26.83
2517 2 20.108 -15.25145 20.601
2518 2 21.56 -11.082 26.32
2519 2 24.53 -13.13 18.279
2520 2 30.32 -12.73 21.159
2521 1 19.395 11.66 -12.902
2522 1 17.692 7.461 -9.934
2523 1 15.8232 1.944 -4.3
2524 1 16.0042 4.913 -4.34
2525 1 18.815 15.24 -2.68
2526 1 15.7209 12.65 -2.68
2527 1 20.233 9.768 -0.09
2528 1 19.53 7.296 -4.23
2529 1 15.9501 4.651 -9.862
2530 1 24.587 9.63 -1.86
2531 1 25.7 11.54 -13.957
2532 1 23.038 1.924 -10.695
2533 1 27.97 9.948 -12.927
2534 1 30.39 15.33 -14.5895
2535 1 25.59 2.565 -0.91
2536 1 28.4 4.047 -8.944
2537 1 20.965 13.95 -3.51
2538 1 29.53 7.755 -11.207
2539 1 25.41 3.625 -8.806
2540 1 25.68 9.713 -5.823
2541 1 28.58 9.408 -4.51
2542 1 23.614 14.76 -6.09
2543 1 28.49 6.71 -1.48
2544 1 30.06 12.26 -8.404
2545 1 28.69 1.331 -2.31
2546 1 15.4958 10.29 -4.58
2547 1 18.967 14.28 -11.208
2548 1 24.186 10.99 -7.203
2549 1 30.66 14.17 -11.178
2550 1 17.391 5.781 -13.015
2551 1 18.961 6.208 -0.83
2552 1 23.9 13.93 -15.2015
2553 1 21.058 12.92 -5.823
2554 1 23.056 1.069 -2.9
2555 1 20.276 3.943 -14.3831
2556 1 29.35 2.814 -0.85
2557 1 25.65 9.547 -9.528
2558 1 18.559 9.774 -7.137
2559 1 25.9 8.545 -13.009
2560 1 23.142 3.295 -14.001
2561 2 16.85 10.46 -2.72
2562 2 25.91 6.405 -14.193
2563 2 26.06 8.176 -7.692
2564 2 24.897 8.553 -3.84
2565 2 27.75 10.2 -10.292
2566 2 15.6868 12.15 -10.63
2567 2 18.122 3.534 -12.418
2568 2 29.04 1.078 -4.64
2569 2 18.009 1.144 -0.74
2570 2 19.144 13.53 -2.05
2571 2 16.0225 8.874 -10.241
2572 2 17.01 0.3739 -11.318
2573 2 24.396 4.466 -0.1
2574 2 21.831 13.89 -7.407
2575 2 27.99 11.75 -14.5441
2576 2 19.777 8.46 -8.769
2577 2 25.44 12.42 -0.84
2578 2 28.22 7.477 -5.877
2579 2 29.16 14.38 -13.342
2580 2 27.05 3.18 -7.014
2581 2 17.833 5.036 -9.343
2582 2 16.514 9.601 -7.356
2583 2 22.303 11.07 -5.835
2584 2 21.43 1.685 -14.4563
2585 2 24.975 13.46 -13.108
2586 2 23.927 11.04 -9.472
2587 2 17.394 14.86 -15.0969
2588 2 21.678 6.583 -3.54
2589 2 21.333 10.47 -12.984
2590 2 19.182 12.05 -10.327
2591 2 26.53 4.068 -10.54
2592 2 23.312 14.35 -3.66
2593 2 24.4 1.287 -4.99
2594 2 23.702 4.496 -7.788
2595 2 20.8 7.346 -15.2208
2596 2 16.3084 3.53 -6.06
2597 2 16.1157 3.392 -2.53
2598 2 21.183 2.869 -9.854
2599 2 27.23 2.657 -14.9448
2600 2 26.25 7.145 -1.06
2601 2 30.07 8.316 -1.18
2602 2 20.495 0.3502 -3.73
2603 2 28.11 10.08 -2.27
2604 2 25.47 13.18 -6.8
2605 2 22.4 15.02 -10.499
2606 2 22.18 4.891 -9.818
2607 2 19.541 13.9 -13.227
2608 2 22.512 9.49 -2.74
2609 2 24.455 0.5821 -0.6
2610 2 20.563 11.04 -1.8
2611 2 21.7 5.189 -13.372
2612 2 19.973 4.056 -0.88
2613 2 17.962 10.42 -14.4614
2614 2 25.112 7.817 -11.029
2615 2 19.673 9.482 -4.92
2616 2 16.686 0.2309 -3.98
2617 2 29.94 9.158 -12.847
2618 2 28.7 14.18 -7.972
2619 2 20.635 4.666 -6.42
2620 2 30.69 2.615 -14.354
2621 2 19.262 12.24 -6.87
2622 2 15.6667 5.464 -12.097
2623 2 18.798 5.976 -5.761
2624 2 18.677 7.249 -11.565
2625 2 24.522 9.992 -14.238
2626 2 28.78 14.96 -10.141
2627 2 29.46 6.041 -8.579
2628 2 28.98 15.05 -1.43
2629 2 26.72 2.78 -3.03
2630 2 17.52 6.94 -14.6776
2631 2 24.746 1.144 -8.912
2632 2 27.14 11.11 -5.21
2633 2 29.25 5.052 -0.09
2634 2 30.52 12.59 -4.93
2635 2 18.124 6.583 -2.73
2636 2 28.65 5.797 -3.87
2637 2 20.108 0.09855 -10.099
2638 2 21.56 4.268 -4.38
2639 2 24.53 2.22 -12.421
2640 2 30.32 2.62 -9.541
2641 1 19.395 11.66 2.448
2642 1 17.692 7.461 5.416
2643 1 15.8232 1.944 11.05
2644 1 16.0042 4.913 11.01
2645 1 18.815 15.24 12.67
2646 1 15.7209 12.65 12.67
2647 1 20.233 9.768 15.26
2648 1 19.53 7.296 11.12
2649 1 15.9501 4.651 5.488
2650 1 24.587 9.63 13.49
2651 1 25.7 11.54 1.393
2652 1 23.038 1.924 4.655
2653 1 27.97 9.948 2.423
2654 1 30.39 15.33 0.7605
2655 1 25.59 2.565 14.44
2656 1 28.4 4.047 6.406
2657 1 20.965 13.95 11.84
2658 1 29.53 7.755 4.143
2659 1 25.41 3.625 6.544
2660 1 25.68 9.713 9.527
2661 1 28.58 9.408 10.84
2662 1 23.614 14.76 9.26
2663 1 28.49 6.71 13.87
2664 1 30.06 12.26 6.946
2665 1 28.69 1.331 13.04
2666 1 15.4958 10.29 10.77
2667 1 18.967 14.28 4.142
2668 1 24.186 10.99 8.147
2669 1 30.66 14.17 4.172
2670 1 17.391 5.781 2.335
2671 1 18.961 6.208 14.52
2672 1 23.9 13.93 0.1485
2673 1 21.058 12.92 9.527
2674 1 23.056 1.069 12.45
2675 1 20.276 3.943 0.9669
2676 1 29.35 2.814 14.5
2677 1 25.65 9.547 5.822
2678 1 18.559 9.774 8.213
2679 1 25.9 8.545 2.341
2680 1 23.142 3.295 1.349
2681 2 16.85 10.46 12.63
2682 2 25.91 6.405 1.157
2683 2 26.06 8.176 7.658
2684 2 24.897 8.553 11.51
2685 2 27.75 10.2 5.058
2686 2 15.6868 12.15 4.72
2687 2 18.122 3.534 2.932
2688 2 29.04 1.078 10.71
2689 2 18.009 1.144 14.61
2690 2 19.144 13.53 13.3
2691 2 16.0225 8.874 5.109
2692 2 17.01 0.3739 4.032
2693 2 24.396 4.466 15.25
2694 2 21.831 13.89 7.943
2695 2 27.99 11.75 0.8059
2696 2 19.777 8.46 6.581
2697 2 25.44 12.42 14.51
2698 2 28.22 7.477 9.473
2699 2 29.16 14.38 2.008
2700 2 27.05 3.18 8.336
2701 2 17.833 5.036 6.007
2702 2 16.514 9.601 7.994
2703 2 22.303 11.07 9.515
2704 2 21.43 1.685 0.8937
2705 2 24.975 13.46 2.242
2706 2 23.927 11.04 5.878
2707 2 17.394 14.86 0.2531
2708 2 21.678 6.583 11.81
2709 2 21.333 10.47 2.366
2710 2 19.182 12.05 5.023
2711 2 26.53 4.068 4.81
2712 2 23.312 14.35 11.69
2713 2 24.4 1.287 10.36
2714 2 23.702 4.496 7.562
2715 2 20.8 7.346 0.1292
2716 2 16.3084 3.53 9.29
2717 2 16.1157 3.392 12.82
2718 2 21.183 2.869 5.496
2719 2 27.23 2.657 0.4052
2720 2 26.25 7.145 14.29
2721 2 30.07 8.316 14.17
2722 2 20.495 0.3502 11.62
2723 2 28.11 10.08 13.08
2724 2 25.47 13.18 8.55
2725 2 22.4 15.02 4.851
2726 2 22.18 4.891 5.532
2727 2 19.541 13.9 2.123
2728 2 22.512 9.49 12.61
2729 2 24.455 0.5821 14.75
2730 2 20.563 11.04 13.55
2731 2 21.7 5.189 1.978
2732 2 19.973 4.056 14.47
2733 2 17.962 10.42 0.8886
2734 2 25.112 7.817 4.321
2735 2 19.673 9.482 10.43
2736 2 16.686 0.2309 11.37
2737 2 29.94 9.158 2.503
2738 2 28.7 14.18 7.378
2739 2 20.635 4.666 8.93
2740 2 30.69 2.615 0.996
2741 2 19.262 12.24 8.48
2742 2 15.6667 5.464 3.253
2743 2 18.798 5.976 9.589
2744 2 18.677 7.249 3.785
2745 2 24.522 9.992 1.112
2746 2 28.78 14.96 5.209
2747 2 29.46 6.041 6.771
2748 2 28.98 15.05 13.92
2749 2 26.72 2.78 12.32
2750 2 17.52 6.94 0.6724
2751 2 24.746 1.144 6.438
2752 2 27.14 11.11 10.14
2753 2 29.25 5.052 15.26
2754 2 30.52 12.59 10.42
2755 2 18.124 6.583 12.62
2756 2 28.65 5.797 11.48
2757 2 20.108 0.09855 5.251
2758 2 21.56 4.268 10.97
2759 2 24.53 2.22 2.929
2760 2 30.32 2.62 5.809
2761 1 19.395 11.66 17.798
2762 1 17.692 7.461 20.766
2763 1 15.8232 1.944 26.4
2764 1 16.0042 4.913 26.36
2765 1 18.815 15.24 28.02
2766 1 15.7209 12.65 28.02
2767 1 20.233 9.768 30.61
2768 1 19.53 7.296 26.47
2769 1 15.9501 4.651 20.838
2770 1 24.587 9.63 28.84
2771 1 25.7 11.54 16.743
2772 1 23.038 1.924 20.005
2773 1 27.97 9.948 17.773
2774 1 30.39 15.33 16.1105
2775 1 25.59 2.565 29.79
2776 1 28.4 4.047 21.756
2777 1 20.965 13.95 27.19
2778 1 29.53 7.755 19.493
2779 1 25.41 3.625 21.894
2780 1 25.68 9.713 24.877
2781 1 28.58 9.408 26.19
2782 1 23.614 14.76 24.61
2783 1 28.49 6.71 29.22
2784 1 30.06 12.26 22.296
2785 1 28.69 1.331 28.39
2786 1 15.4958 10.29 26.12
2787 1 18.967 14.28 19.492
2788 1 24.186 10.99 23.497
2789 1 30.66 14.17 19.522
2790 1 17.391 5.781 17.685
2791 1 18.961 6.208 29.87
2792 1 23.9 13.93 15.4985
2793 1 21.058 12.92 24.877
2794 1 23.056 1.069 27.8
2795 1 20.276 3.943 16.3169
2796 1 29.35 2.814 29.85
2797 1 25.65 9.547 21.172
2798 1 18.559 9.774 23.563
2799 1 25.9 8.545 17.691
2800 1 23.142 3.295 16.699
2801 2 16.85 10.46 27.98
2802 2 25.91 6.405 16.507
2803 2 26.06 8.176 23.008
2804 2 24.897 8.553 26.86
2805 2 27.75 10.2 20.408
2806 2 15.6868 12.15 20.07
2807 2 18.122 3.534 18.282
2808 2 29.04 1.078 26.06
2809 2 18.009 1.144 29.96
2810 2 19.144 13.53 28.65
2811 2 16.0225 8.874 20.459
2812 2 17.01 0.3739 19.382
2813 2 24.396 4.466 30.6
2814 2 21.831 13.89 23.293
2815 2 27.99 11.75 16.1559
2816 2 19.777 8.46 21.931
2817 2 25.44 12.42 29.86
2818 2 28.22 7.477 24.823
2819 2 29.16 14.38 17.358
2820 2 27.05 3.18 23.686
2821 2 17.833 5.036 21.357
2822 2 16.514 9.601 23.344
2823 2 22.303 11.07 24.865
2824 2 21.43 1.685 16.2437
2825 2 24.975 13.46 17.592
2826 2 23.927 11.04 21.228
2827 2 17.394 14.86 15.6031
2828 2 21.678 6.583 27.16
2829 2 21.333 10.47 17.716
2830 2 19.182 12.05 20.373
2831 2 26.53 4.068 20.16
2832 2 23.312 14.35 27.04
2833 2 24.4 1.287 25.71
2834 2 23.702 4.496 22.912
2835 2 20.8 7.346 15.4792
2836 2 16.3084 3.53 24.64
2837 2 16.1157 3.392 28.17
2838 2 21.183 2.869 20.846
2839 2 27.23 2.657 15.7552
2840 2 26.25 7.145 29.64
2841 2 30.07 8.316 29.52
2842 2 20.495 0.3502 26.97
2843 2 28.11 10.08 28.43
2844 2 25.47 13.18 23.9
2845 2 22.4 15.02 20.201
2846 2 22.18 4.891 20.882
2847 2 19.541 13.9 17.473
2848 2 22.512 9.49 27.96
2849 2 24.455 0.5821 30.1
2850 2 20.563 11.04 28.9
2851 2 21.7 5.189 17.328
2852 2 19.973 4.056 29.82
2853 2 17.962 10.42 16.2386
2854 2 25.112 7.817 19.671
2855 2 19.673 9.482 25.78
2856 2 16.686 0.2309 26.72
2857 2 29.94 9.158 17.853
2858 2 28.7 14.18 22.728
2859 2 20.635 4.666 24.28
2860 2 30.69 2.615 16.346
2861 2 19.262 12.24 23.83
2862 2 15.6667 5.464 18.603
2863 2 18.798 5.976 24.939
2864 2 18.677 7.249 19.135
2865 2 24.522 9.992 16.462
2866 2 28.78 14.96 20.559
2867 2 29.46 6.041 22.121
2868 2 28.98 15.05 29.27
2869 2 26.72 2.78 27.67
2870 2 17.52 6.94 16.0224
2871 2 24.746 1.144 21.788
2872 2 27.14 11.11 25.49
2873 2 29.25 5.052 30.61
2874 2 30.52 12.59 25.77
2875 2 18.124 6.583 27.97
2876 2 28.65 5.797 26.83
2877 2 20.108 0.09855 20.601
2878 2 21.56 4.268 26.32
2879 2 24.53 2.22 18.279
2880 2 30.32 2.62 21.159
2881 1 19.395 27.01 -12.902
2882 1 17.692 22.811 -9.934
2883 1 15.8232 17.294 -4.3
2884 1 16.0042 20.263 -4.34
2885 1 18.815 30.59 -2.68
2886 1 15.7209 28.0 -2.68
2887 1 20.233 25.118 -0.09
2888 1 19.53 22.646 -4.23
2889 1 15.9501 20.001 -9.862
2890 1 24.587 24.98 -1.86
2891 1 25.7 26.89 -13.957
2892 1 23.038 17.274 -10.695
2893 1 27.97 25.298 -12.927
2894 1 30.39 30.68 -14.5895
2895 1 25.59 17.915 -0.91
2896 1 28.4 19.397 -8.944
2897 1 20.965 29.3 -3.51
2898 1 29.53 23.105 -11.207
2899 1 25.41 18.975 -8.806
2900 1 25.68 25.063 -5.823
2901 1 28.58 24.758 -4.51
2902 1 23.614 30.11 -6.09
2903 1 28.49 22.06 -1.48
2904 1 30.06 27.61 -8.404
2905 1 28.69 16.681 -2.31
2906 1 15.4958 25.64 -4.58
2907 1 18.967 29.63 -11.208
2908 1 24.186 26.34 -7.203
2909 1 30.66 29.52 -11.178
2910 1 17.391 21.131 -13.015
2911 1 18.961 21.558 -0.83
2912 1 23.9 29.28 -15.2015
2913 1 21.058 28.27 -5.823
2914 1 23.056 16.419 -2.9
2915 1 20.276 19.293 -14.3831
2916 1 29.35 18.164 -0.85
2917 1 25.65 24.897 -9.528
2918 1 18.559 25.124 -7.137
2919 1 25.9 23.895 -13.009
2920 1 23.142 18.645 -14.001
2921 2 16.85 25.81 -2.72
2922 2 25.91 21.755 -14.193
2923 2 26.06 23.526 -7.692
2924 2 24.897 23.903 -3.84
2925 2 27.75 25.55 -10.292
2926 2 15.6868 27.5 -10.63
2927 2 18.122 18.884 -12.418
2928 2 29.04 16.428 -4.64
2929 2 18.009 16.494 -0.74
2930 2 19.144 28.88 -2.05
2931 2 16.0225 24.224 -10.241
2932 2 17.01 15.7239 -11.318
2933 2 24.396 19.816 -0.1
2934 2 21.831 29.24 -7.407
2935 2 27.99 27.1 -14.5441
2936 2 19.777 23.81 -8.769
2937 2 25.44 27.77 -0.84
2938 2 28.22 22.827 -5.877
2939 2 29.16 29.73 -13.342
2940 2 27.05 18.53 -7.014
2941 2 17.833 20.386 -9.343
2942 2 16.514 24.951 -7.356
2943 2 22.303 26.42 -5.835
2944 2 21.43 17.035 -14.4563
2945 2 24.975 28.81 -13.108
2946 2 23.927 26.39 -9.472
2947 2 17.394 30.21 -15.0969
2948 2 21.678 21.933 -3.54
2949 2 21.333 25.82 -12.984
2950 2 19.182 27.4 -10.327
2951 2 26.53 19.418 -10.54
2952 2 23.312 29.7 -3.66
2953 2 24.4 16.637 -4.99
2954 2 23.702 19.846 -7.788
2955 2 20.8 22.696 -15.2208
2956 2 16.3084 18.88 -6.06
2957 2 16.1157 18.742 -2.53
2958 2 21.183 18.219 -9.854
2959 2 27.23 18.007 -14.9448
2960 2 26.25 22.495 -1.06
2961 2 30.07 23.666 -1.18
2962 2 20.495 15.7002 -3.73
2963 2 28.11 25.43 -2.27
2964 2 25.47 28.53 -6.8
2965 2 22.4 30.37 -10.499
2966 2 22.18 20.241 -9.818
2967 2 19.541 29.25 -13.227
2968 2 22.512 24.84 -2.74
2969 2 24.455 15.9321 -0.6
2970 2 20.563 26.39 -1.8
2971 2 21.7 20.539 -13.372
2972 2 19.973 19.406 -0.88
2973 2 17.962 25.77 -14.4614
2974 2 25.112 23.167 -11.029
2975 2 19.673 24.832 -4.92
2976 2 16.686 15.5809 -3.98
2977 2 29.94 24.508 -12.847
2978 2 28.7 29.53 -7.972
2979 2 20.635 20.016 -6.42
2980 2 30.69 17.965 -14.354
2981 2 19.262 27.59 -6.87
2982 2 15.6667 20.814 -12.097
2983 2 18.798 21.326 -5.761
2984 2 18.677 22.599 -11.565
2985 2 24.522 25.342 -14.238
2986 2 28.78 30.31 -10.141
2987 2 29.46 21.391 -8.579
2988 2 28.98 30.4 -1.43
2989 2 26.72 18.13 -3.03
2990 2 17.52 22.29 -14.6776
2991 2 24.746 16.494 -8.912
2992 2 27.14 26.46 -5.21
2993 2 29.25 20.402 -0.09
2994 2 30.52 27.94 -4.93
2995 2 18.124 21.933 -2.73
2996 2 28.65 21.147 -3.87
2997 2 20.108 15.44855 -10.099
2998 2 21.56 19.618 -4.38
2999 2 24.53 17.57 -12.421
3000 2 30.32 17.97 -9.541
3001 1 19.395 27.01 2.448
3002 1 17.692 22.811 5.416
3003 1 15.8232 17.294 11.05
3004 1 16.0042 20.263 11.01
3005 1 18.815 30.59 12.67
3006 1 15.7209 28.0 12.67
3007 1 20.233 25.118 15.26
3008 1 19.53 22.646 11.12
3009 1 15.9501 20.001 5.488
3010 1 24.587 24.98 13.49
3011 1 25.7 26.89 1.393
3012 1 23.038 17.274 4.655
3013 1 27.97 25.298 2.423
3014 1 30.39 30.68 0.7605
3015 1 25.59 17.915 14.44
3016 1 28.4 19.397 6.406
3017 1 20.965 29.3 11.84
3018 1 29.53 23.105 4.143
3019 1 25.41 18.975 6.544
3020 1 25.68 25.063 9.527
3021 1 28.58 24.758 10.84
3022 1 23.614 30.11 9.26
3023 1 28.49 22.06 13.87
3024 1 30.06 27.61 6.946
3025 1 28.69 16.681 13.04
3026 1 15.4958 25.64 10.77
3027 1 18.967 29.63 4.142
3028 1 24.186 26.34 8.147
3029 1 30.66 29.52 4.172
3030 1 17.391 21.131 2.335
3031 1 18.961 21.558 14.52
3032 1 23.9 29.28 0.1485
3033 1 21.058 28.27 9.527
3034 1 23.056 16.419 12.45
3035 1 20.276 19.293 0.9669
3036 1 29.35 18.164 14.5
3037 1 25.65 24.897 5.822
3038 1 18.559 25.124 8.213
3039 1 25.9 23.895 2.341
3040 1 23.142 18.645 1.349
3041 2 16.85 25.81 12.63
3042 2 25.91 21.755 1.157
3043 2 26.06 23.526 7.658
3044 2 24.897 23.903 11.51
3045 2 27.75 25.55 5.058
3046 2 15.6868 27.5 4.72
3047 2 18.122 18.884 2.932
3048 2 29.04 16.428 10.71
3049 2 18.009 16.494 14.61
3050 2 19.144 28.88 13.3
3051 2 16.0225 24.224 5.109
3052 2 17.01 15.7239 4.032
3053 2 24.396 19.816 15.25
3054 2 21.831 29.24 7.943
3055 2 27.99 27.1 0.8059
3056 2 19.777 23.81 6.581
3057 2 25.44 27.77 14.51
3058 2 28.22 22.827 9.473
3059 2 29.16 29.73 2.008
3060 2 27.05 18.53 8.336
3061 2 17.833 20.386 6.007
3062 2 16.514 24.951 7.994
3063 2 22.303 26.42 9.515
3064 2 21.43 17.035 0.8937
3065 2 24.975 28.81 2.242
3066 2 23.927 26.39 5.878
3067 2 17.394 30.21 0.2531
3068 2 21.678 21.933 11.81
3069 2 21.333 25.82 2.366
3070 2 19.182 27.4 5.023
3071 2 26.53 19.418 4.81
3072 2 23.312 29.7 11.69
3073 2 24.4 16.637 10.36
3074 2 23.702 19.846 7.562
3075 2 20.8 22.696 0.1292
3076 2 16.3084 18.88 9.29
3077 2 16.1157 18.742 12.82
3078 2 21.183 18.219 5.496
3079 2 27.23 18.007 0.4052
3080 2 26.25 22.495 14.29
3081 2 30.07 23.666 14.17
3082 2 20.495 15.7002 11.62
3083 2 28.11 25.43 13.08
3084 2 25.47 28.53 8.55
3085 2 22.4 30.37 4.851
3086 2 22.18 20.241 5.532
3087 2 19.541 29.25 2.123
3088 2 22.512 24.84 12.61
3089 2 24.455 15.9321 14.75
3090 2 20.563 26.39 13.55
3091 2 21.7 20.539 1.978
3092 2 19.973 19.406 14.47
3093 2 17.962 25.77 0.8886
3094 2 25.112 23.167 4.321
3095 2 19.673 24.832 10.43
3096 2 16.686 15.5809 11.37
3097 2 29.94 24.508 2.503
3098 2 28.7 29.53 7.378
3099 2 20.635 20.016 8.93
3100 2 30.69 17.965 0.996
3101 2 19.262 27.59 8.48
3102 2 15.6667 20.814 3.253
3103 2 18.798 21.326 9.589
3104 2 18.677 22.599 3.785
3105 2 24.522 25.342 1.112
3106 2 28.78 30.31 5.209
3107 2 29.46 21.391 6.771
3108 2 28.98 30.4 13.92
3109 2 26.72 18.13 12.32
3110 2 17.52 22.29 0.6724
3111 2 24.746 16.494 6.438
3112 2 27.14 26.46 10.14
3113 2 29.25 20.402 15.26
3114 2 30.52 27.94 10.42
3115 2 18.124 21.933 12.62
3116 2 28.65 21.147 11.48
3117 2 20.108 15.44855 5.251
3118 2 21.56 19.618 10.97
3119 2 24.53 17.57 2.929
3120 2 30.32 17.97 5.809
3121 1 19.395 27.01 17.798
3122 1 17.692 22.811 20.766
3123 1 15.8232 17.294 26.4
3124 1 16.0042 20.263 26.36
3125 1 18.815 30.59 28.02
3126 1 15.7209 28.0 28.02
3127 1 20.233 25.118 30.61
3128 1 19.53 22.646 26.47
3129 1 15.9501 20.001 20.838
3130 1 24.587 24.98 28.84
3131 1 25.7 26.89 16.743
3132 1 23.038 17.274 20.005
3133 1 27.97 25.298 17.773
3134 1 30.39 30.68 16.1105
3135 1 25.59 17.915 29.79
3136 1 28.4 19.397 21.756
3137 1 20.965 29.3 27.19
3138 1 29.53 23.105 19.493
3139 1 25.41 18.975 21.894
3140 1 25.68 25.063 24.877
3141 1 28.58 24.758 26.19
3142 1 23.614 30.11 24.61
3143 1 28.49 22.06 29.22
3144 1 30.06 27.61 22.296
3145 1 28.69 16.681 28.39
3146 1 15.4958 25.64 26.12
3147 1 18.967 29.63 19.492
3148 1 24.186 26.34 23.497
3149 1 30.66 29.52 19.522
3150 1 17.391 21.131 17.685
3151 1 18.961 21.558 29.87
3152 1 23.9 29.28 15.4985
3153 1 21.058 28.27 24.877
3154 1 23.056 16.419 27.8
3155 1 20.276 19.293 16.3169
3156 1 29.35 18.164 29.85
3157 1 25.65 24.897 21.172
3158 1 18.559 25.124 23.563
3159 1 25.9 23.895 17.691
3160 1 23.142 18.645 16.699
3161 2 16.85 25.81 27.98
3162 2 25.91 21.755 16.507
3163 2 26.06 23.526 23.008
3164 2 24.897 23.903 26.86
3165 2 27.75 25.55 20.408
3166 2 15.6868 27.5 20.07
3167 2 18.122 18.884 18.282
3168 2 29.04 16.428 26.06
3169 2 18.009 16.494 29.96
3170 2 19.144 28.88 28.65
3171 2 16.0225 24.224 20.459
3172 2 17.01 15.7239 19.382
3173 2 24.396 19.816 30.6
3174 2 21.831 29.24 23.293
3175 2 27.99 27.1 16.1559
3176 2 19.777 23.81 21.931
3177 2 25.44 27.77 29.86
3178 2 28.22 22.827 24.823
3179 2 29.16 29.73 17.358
3180 2 27.05 18.53 23.686
3181 2 17.833 20.386 21.357
3182 2 16.514 24.951 23.344
3183 2 22.303 26.42 24.865
3184 2 21.43 17.035 16.2437
3185 2 24.975 28.81 17.592
3186 2 23.927 26.39 21.228
3187 2 17.394 30.21 15.6031
3188 2 21.678 21.933 27.16
3189 2 21.333 25.82 17.716
3190 2 19.182 27.4 20.373
3191 2 26.53 19.418 20.16
3192 2 23.312 29.7 27.04
3193 2 24.4 16.637 25.71
3194 2 23.702 19.846 22.912
3195 2 20.8 22.696 15.4792
3196 2 16.3084 18.88 24.64
3197 2 16.1157 18.742 28.17
3198 2 21.183 18.219 20.846
3199 2 27.23 18.007 15.7552
3200 2 26.25 22.495 29.64
3201 2 30.07 23.666 29.52
3202 2 20.495 15.7002 26.97
3203 2 28.11 25.43 28.43
3204 2 25.47 28.53 23.9
3205 2 22.4 30.37 20.201
3206 2 22.18 20.241 20.882
3207 2 19.541 29.25 17.473
3208 2 22.512 24.84 27.96
3209 2 24.455 15.9321 30.1
3210 2 20.563 26.39 28.9
3211 2 21.7 20.539 17.328
3212 2 19.973 19.406 29.82
3213 2 17.962 25.77 16.2386
3214 2 25.112 23.167 19.671
3215 2 19.673 24.832 25.78
3216 2 16.686 15.5809 26.72
3217 2 29.94 24.508 17.853
3218 2 28.7 29.53 22.728
3219 2 20.635 20.016 24.28
3220 2 30.69 17.965 16.346
3221 2 19.262 27.59 23.83
3222 2 15.6667 20.814 18.603
3223 2 18.798 21.326 24.939
3224 2 18.677 22.599 19.135
3225 2 24.522 25.342 16.462
3226 2 28.78 30.31 20.559
3227 2 29.46 21.391 22.121
3228 2 28.98 30.4 29.27
3229 2 26.72 18.13 27.67
3230 2 17.52 22.29 16.0224
3231 2 24.746 16.494 21.788
3232 2 27.14 26.46 25.49
3233 2 29.25 20.402 30.61
3234 2 30.52 27.94 25.77
3235 2 18.124 21.933 27.97
3236 2 28.65 21.147 26.83
3237 2 20.108 15.44855 20.601
3238 2 21.56 19.618 26.32
3239 2 24.53 17.57 18.279
3240 2 30.32 17.97 21.159
